LAMMPS Description

1680  atoms
1770  bonds
3120  angles
4890  dihedrals
0  impropers

98  atom types
935  bond types
5312  angle types
986  dihedral types
38  improper types

-19.4996 19.4996 xlo xhi
-19.4996 19.4996 ylo yhi
-19.4996 19.4996 zlo zhi

Masses

1 12.01  # c
2 12.01  # cs
3 12.01  # c1
4 12.01  # c2
5 12.01  # c3
6 12.01  # ca
7 12.01  # cp
8 12.01  # cq
9 12.01  # cc
10 12.01  # cd
11 12.01  # ce
12 12.01  # cf
13 12.01  # cg
14 12.01  # ch
15 12.01  # cx
16 12.01  # cy
17 12.01  # cu
18 12.01  # cv
19 12.01  # cz
20 1.008  # h1
21 1.008  # h2
22 1.008  # h3
23 1.008  # h4
24 1.008  # h5
25 1.008  # ha
26 1.008  # hc
27 1.008  # hn
28 1.008  # ho
29 1.008  # hp
30 1.008  # hs
31 1.008  # hw
32 1.008  # hx
33 19.00  # f
34 35.45  # cl
35 79.90  # br
36 126.9  # i
37 14.01  # n
38 14.01  # n1
39 14.01  # n2
40 14.01  # n3
41 14.01  # n4
42 14.01  # na
43 14.01  # nb
44 14.01  # nc
45 14.01  # nd
46 14.01  # ne
47 14.01  # nf
48 14.01  # nh
49 14.01  # no
50 14.01  # ns
51 14.01  # nt
52 14.01  # nx
53 14.01  # ny
54 14.01  # nz
55 14.01  # n+
56 14.01  # nu
57 14.01  # nv
58 14.01  # n7
59 14.01  # n8
60 14.01  # n9
61 14.01  # ni
62 14.01  # nj
63 14.01  # nk
64 14.01  # nl
65 14.01  # nm
66 14.01  # nn
67 14.01  # np
68 14.01  # nq
69 14.01  # n5
70 14.01  # n6
71 16.00  # o
72 16.00  # oh
73 16.00  # os
74 16.00  # op
75 16.00  # oq
76 16.00  # ow
77 30.97  # p2
78 30.97  # p3
79 30.97  # p4
80 30.97  # p5
81 30.97  # pb
82 30.97  # pc
83 30.97  # pd
84 30.97  # pe
85 30.97  # pf
86 30.97  # px
87 30.97  # py
88 32.06  # s
89 32.06  # s2
90 32.06  # s4
91 32.06  # s6
92 32.06  # sh
93 32.06  # ss
94 32.06  # sp
95 32.06  # sq
96 32.06  # sx
97 32.06  # sy
98 63.010  # Cu

Atoms

1 1 5 -0.049212 14.389 -11.692 -6.936
2 1 5 -0.015877 12.960 -12.255 -6.799
3 1 5 -0.044901 12.368 -12.680 -8.139
4 1 5 -0.058763 11.958 -14.011 -8.323
5 1 5 -0.061984 11.388 -14.423 -9.529
6 1 5 -0.062248 11.227 -13.512 -10.569
7 1 5 -0.061984 11.635 -12.189 -10.405
8 1 5 -0.058763 12.198 -11.773 -9.196
9 1 26 0.026994 14.743 -11.334 -5.960
10 1 26 0.026994 14.404 -10.826 -7.609
11 1 26 0.035233 13.021 -13.161 -6.187
12 1 26 0.062571 12.073 -14.739 -7.521
13 1 26 0.062279 11.065 -15.454 -9.653
14 1 26 0.062269 10.782 -13.830 -11.508
15 1 26 0.062279 11.512 -11.479 -11.220
16 1 26 0.062571 12.503 -10.734 -9.090
17 1 5 -0.039428 12.007 -11.243 -6.110
18 1 5 -0.015033 12.228 -10.983 -4.588
19 1 5 -0.044868 11.303 -9.927 -3.972
20 1 5 -0.058762 10.301 -9.271 -4.704
21 1 5 -0.061984 9.512 -8.276 -4.119
22 1 5 -0.062248 9.701 -7.921 -2.788
23 1 5 -0.061984 10.688 -8.555 -2.042
24 1 5 -0.058762 11.489 -9.536 -2.633
25 1 26 0.027901 10.974 -11.558 -6.284
26 1 26 0.027901 12.102 -10.282 -6.635
27 1 26 0.035266 13.220 -10.511 -4.534
28 1 26 0.062571 10.112 -9.508 -5.747
29 1 26 0.062279 8.751 -7.773 -4.711
30 1 26 0.062269 9.081 -7.151 -2.333
31 1 26 0.062279 10.845 -8.278 -1.003
32 1 26 0.062571 12.275 -9.985 -2.029
33 1 5 -0.039396 12.345 -12.266 -3.717
34 1 5 -0.015033 11.069 -13.074 -3.315
35 1 5 -0.044868 11.549 -14.291 -2.533
36 1 5 -0.058762 11.281 -14.384 -1.159
37 1 5 -0.061984 11.757 -15.459 -0.406
38 1 5 -0.062248 12.511 -16.456 -1.016
39 1 5 -0.061984 12.789 -16.380 -2.379
40 1 5 -0.058762 12.311 -15.305 -3.133
41 1 26 0.027901 12.848 -11.984 -2.779
42 1 26 0.027901 13.075 -12.932 -4.187
43 1 26 0.035266 10.511 -12.437 -2.621
44 1 26 0.062571 10.696 -13.616 -0.665
45 1 26 0.062279 11.533 -15.516 0.657
46 1 26 0.062269 12.878 -17.294 -0.430
47 1 26 0.062279 13.369 -17.162 -2.860
48 1 26 0.062571 12.529 -15.276 -4.199
49 1 5 -0.039396 10.125 -13.377 -4.494
50 1 5 -0.015033 8.893 -14.309 -4.331
51 1 5 -0.044868 9.258 -15.781 -4.565
52 1 5 -0.058762 9.339 -16.726 -3.534
53 1 5 -0.061984 9.671 -18.057 -3.806
54 1 5 -0.062248 9.923 -18.464 -5.113
55 1 5 -0.061984 9.841 -17.542 -6.152
56 1 5 -0.058762 9.510 -16.213 -5.880
57 1 26 0.027901 10.727 -13.743 -5.335
58 1 26 0.027901 9.716 -12.413 -4.813
59 1 26 0.035266 8.255 -14.089 -5.198
60 1 26 0.062571 9.172 -16.440 -2.500
61 1 26 0.062279 9.739 -18.773 -2.992
62 1 26 0.062269 10.182 -19.498 -5.321
63 1 26 0.062279 10.029 -17.857 -7.175
64 1 26 0.062571 9.438 -15.510 -6.709
65 1 5 -0.039396 7.992 -14.084 -3.091
66 1 5 -0.015033 7.081 -12.823 -3.016
67 1 5 -0.044868 6.320 -12.589 -4.314
68 1 5 -0.058762 5.130 -13.303 -4.543
69 1 5 -0.061984 4.406 -13.140 -5.725
70 1 5 -0.062248 4.863 -12.265 -6.706
71 1 5 -0.061984 6.044 -11.555 -6.504
72 1 5 -0.058762 6.768 -11.718 -5.319
73 1 26 0.027901 8.580 -14.164 -2.172
74 1 26 0.027901 7.295 -14.936 -3.049
75 1 26 0.035266 6.311 -13.112 -2.294
76 1 26 0.062571 4.754 -13.994 -3.790
77 1 26 0.062279 3.485 -13.695 -5.878
78 1 26 0.062269 4.300 -12.133 -7.625
79 1 26 0.062279 6.404 -10.871 -7.268
80 1 26 0.062571 7.687 -11.150 -5.202
81 1 5 -0.039396 7.776 -11.593 -2.377
82 1 5 -0.015033 6.903 -10.616 -1.532
83 1 5 -0.044868 5.618 -10.155 -2.209
84 1 5 -0.058762 4.349 -10.650 -1.876
85 1 5 -0.061984 3.203 -10.191 -2.532
86 1 5 -0.062248 3.302 -9.220 -3.525
87 1 5 -0.061984 4.549 -8.711 -3.866
88 1 5 -0.058762 5.694 -9.175 -3.214
89 1 26 0.027901 8.591 -11.923 -1.728
90 1 26 0.027901 8.274 -11.012 -3.158
91 1 26 0.035266 7.511 -9.697 -1.499
92 1 26 0.062571 4.217 -11.401 -1.106
93 1 26 0.062279 2.229 -10.594 -2.263
94 1 26 0.062269 2.410 -8.867 -4.032
95 1 26 0.062279 4.634 -7.954 -4.642
96 1 26 0.062571 6.659 -8.768 -3.503
97 1 5 -0.039396 6.774 -10.929 -0.001
98 1 5 -0.015033 6.315 -12.345 0.446
99 1 5 -0.044868 5.234 -12.376 1.518
100 1 5 -0.058762 4.298 -13.427 1.513
101 1 5 -0.061984 3.298 -13.505 2.483
102 1 5 -0.062248 3.210 -12.529 3.472
103 1 5 -0.061984 4.119 -11.475 3.486
104 1 5 -0.058762 5.122 -11.399 2.516
105 1 26 0.027901 6.103 -10.163 0.407
106 1 26 0.027901 7.749 -10.719 0.451
107 1 26 0.035266 5.797 -12.752 -0.426
108 1 26 0.062571 4.347 -14.201 0.749
109 1 26 0.062279 2.589 -14.327 2.469
110 1 26 0.062269 2.434 -12.591 4.230
111 1 26 0.062279 4.051 -10.709 4.254
112 1 26 0.062571 5.821 -10.568 2.563
113 1 5 -0.039396 7.487 -13.337 0.699
114 1 5 -0.015033 8.193 -13.477 2.077
115 1 5 -0.044868 8.819 -12.176 2.578
116 1 5 -0.058762 8.353 -11.484 3.705
117 1 5 -0.061984 8.963 -10.299 4.127
118 1 5 -0.062248 10.056 -9.786 3.436
119 1 5 -0.061984 10.544 -10.463 2.323
120 1 5 -0.058762 9.934 -11.647 1.903
121 1 26 0.027901 7.129 -14.329 0.398
122 1 26 0.027901 8.269 -13.120 -0.034
123 1 26 0.035266 9.068 -14.115 1.874
124 1 26 0.062571 7.506 -11.851 4.278
125 1 26 0.062279 8.582 -9.777 5.003
126 1 26 0.062269 10.530 -8.867 3.767
127 1 26 0.062279 11.403 -10.073 1.782
128 1 26 0.062571 10.342 -12.157 1.035
129 1 5 -0.039396 7.406 -14.268 3.161
130 1 5 -0.015043 6.910 -15.687 2.762
131 1 5 -0.044868 8.071 -16.597 2.388
132 1 5 -0.058762 9.045 -16.973 3.328
133 1 5 -0.061984 10.097 -17.816 2.967
134 1 5 -0.062248 10.193 -18.293 1.663
135 1 5 -0.061984 9.244 -17.920 0.715
136 1 5 -0.058762 8.193 -17.074 1.073
137 1 26 0.027901 8.041 -14.358 4.054
138 1 26 0.027901 6.541 -13.685 3.486
139 1 26 0.035265 6.252 -15.583 1.894
140 1 26 0.062571 8.988 -16.612 4.353
141 1 26 0.062279 10.840 -18.103 3.707
142 1 26 0.062269 11.010 -18.955 1.385
143 1 26 0.062279 9.322 -18.285 -0.306
144 1 26 0.062571 7.459 -16.802 0.317
145 1 5 -0.039683 6.029 -16.264 3.907
146 1 5 -0.018457 5.062 -17.397 3.482
147 1 5 -0.045165 3.936 -17.541 4.502
148 1 5 -0.058773 2.605 -17.336 4.107
149 1 5 -0.061984 1.561 -17.473 5.024
150 1 5 -0.062248 1.834 -17.816 6.347
151 1 5 -0.061984 3.150 -18.022 6.753
152 1 5 -0.058773 4.195 -17.889 5.837
153 1 26 0.02789 5.415 -15.440 4.297
154 1 26 0.02789 6.651 -16.591 4.749
155 1 26 0.034958 4.612 -17.113 2.522
156 1 26 0.062571 2.369 -17.076 3.078
157 1 26 0.062279 0.534 -17.315 4.704
158 1 26 0.062269 1.022 -17.928 7.061
159 1 26 0.062279 3.365 -18.290 7.785
160 1 26 0.062571 5.214 -18.060 6.175
161 1 5 -0.058394 5.744 -18.755 3.283
162 1 26 0.023656 6.410 -18.747 2.419
163 1 26 0.023656 5.003 -19.541 3.096
164 1 26 0.023656 6.324 -19.048 4.163
165 1 5 -0.064799 15.391 -12.725 -7.439
166 1 26 0.023057 15.434 -13.587 -6.767
167 1 26 0.023057 16.390 -12.279 -7.491
168 1 26 0.023057 15.139 -13.078 -8.444
169 2 5 -0.049212 -3.944 -4.676 16.288
170 2 5 -0.015877 -2.759 -4.458 15.325
171 2 5 -0.044901 -1.816 -5.656 15.277
172 2 5 -0.058763 -1.586 -6.307 14.054
173 2 5 -0.061984 -0.709 -7.389 13.975
174 2 5 -0.062248 -0.054 -7.840 15.118
175 2 5 -0.061984 -0.277 -7.208 16.341
176 2 5 -0.058763 -1.149 -6.121 16.421
177 2 26 0.026994 -4.551 -3.763 16.343
178 2 26 0.026994 -3.587 -4.873 17.307
179 2 26 0.035233 -3.172 -4.350 14.317
180 2 26 0.062571 -2.086 -5.969 13.147
181 2 26 0.062279 -0.531 -7.876 13.018
182 2 26 0.062269 0.631 -8.681 15.058
183 2 26 0.062279 0.232 -7.564 17.234
184 2 26 0.062571 -1.302 -5.641 17.385
185 2 5 -0.039428 -1.956 -3.180 15.682
186 2 5 -0.015033 -2.644 -1.808 15.408
187 2 5 -0.044868 -1.833 -0.581 15.840
188 2 5 -0.058762 -0.549 -0.673 16.397
189 2 5 -0.061984 0.137 0.467 16.827
190 2 5 -0.062248 -0.442 1.725 16.698
191 2 5 -0.061984 -1.713 1.843 16.150
192 2 5 -0.058762 -2.406 0.701 15.739
193 2 26 0.027901 -0.990 -3.217 15.168
194 2 26 0.027901 -1.708 -3.228 16.753
195 2 26 0.035266 -3.505 -1.795 16.093
196 2 26 0.062571 -0.052 -1.630 16.523
197 2 26 0.062279 1.125 0.368 17.268
198 2 26 0.062269 0.097 2.612 17.026
199 2 26 0.062279 -2.174 2.822 16.052
200 2 26 0.062571 -3.413 0.828 15.348
201 2 5 -0.039396 -3.259 -1.658 13.988
202 2 5 -0.015033 -2.347 -1.359 12.754
203 2 5 -0.044868 -3.255 -1.346 11.530
204 2 5 -0.058762 -3.497 -0.138 10.858
205 2 5 -0.061984 -4.369 -0.085 9.769
206 2 5 -0.062248 -5.014 -1.240 9.338
207 2 5 -0.061984 -4.788 -2.448 9.994
208 2 5 -0.058762 -3.914 -2.501 11.082
209 2 26 0.027901 -4.003 -0.848 14.032
210 2 26 0.027901 -3.877 -2.538 13.789
211 2 26 0.035266 -1.969 -0.342 12.894
212 2 26 0.062571 -3.005 0.773 11.180
213 2 26 0.062279 -4.539 0.859 9.257
214 2 26 0.062269 -5.690 -1.199 8.488
215 2 26 0.062279 -5.283 -3.353 9.653
216 2 26 0.062571 -3.742 -3.459 11.569
217 2 5 -0.039396 -1.114 -2.279 12.651
218 2 5 -0.015033 -0.180 -2.251 11.411
219 2 5 -0.044868 -0.672 -3.197 10.307
220 2 5 -0.058762 -1.254 -2.751 9.114
221 2 5 -0.061984 -1.679 -3.659 8.139
222 2 5 -0.062248 -1.525 -5.028 8.342
223 2 5 -0.061984 -0.943 -5.491 9.517
224 2 5 -0.058762 -0.519 -4.584 10.490
225 2 26 0.027901 -1.439 -3.313 12.818
226 2 26 0.027901 -0.472 -2.023 13.500
227 2 26 0.035266 0.744 -2.743 11.742
228 2 26 0.062571 -1.412 -1.691 8.932
229 2 26 0.062279 -2.138 -3.294 7.225
230 2 26 0.062269 -1.858 -5.731 7.583
231 2 26 0.062279 -0.814 -6.559 9.676
232 2 26 0.062571 -0.054 -4.967 11.397
233 2 5 -0.039396 0.260 -0.862 10.883
234 2 5 -0.015033 1.277 -0.012 11.701
235 2 5 -0.044868 2.468 -0.839 12.169
236 2 5 -0.058762 3.533 -1.062 11.279
237 2 5 -0.061984 4.637 -1.831 11.653
238 2 5 -0.062248 4.693 -2.397 12.922
239 2 5 -0.061984 3.645 -2.197 13.816
240 2 5 -0.058762 2.539 -1.427 13.442
241 2 26 0.027901 -0.615 -0.251 10.642
242 2 26 0.027901 0.754 -1.034 9.914
243 2 26 0.035266 1.694 0.669 10.953
244 2 26 0.062571 3.510 -0.630 10.280
245 2 26 0.062279 5.453 -1.983 10.952
246 2 26 0.062269 5.553 -2.992 13.217
247 2 26 0.062279 3.685 -2.638 14.808
248 2 26 0.062571 1.740 -1.298 14.166
249 2 5 -0.039396 0.610 0.915 12.749
250 2 5 -0.015033 1.281 2.292 13.040
251 2 5 -0.044868 2.777 2.230 13.324
252 2 5 -0.058762 3.756 2.607 12.395
253 2 5 -0.061984 5.116 2.528 12.709
254 2 5 -0.062248 5.522 2.081 13.963
255 2 5 -0.061984 4.568 1.708 14.903
256 2 5 -0.058762 3.210 1.783 14.585
257 2 26 0.027901 -0.421 1.127 12.454
258 2 26 0.027901 0.513 0.379 13.697
259 2 26 0.035266 0.854 2.581 14.015
260 2 26 0.062571 3.492 2.968 11.407
261 2 26 0.062279 5.859 2.819 11.970
262 2 26 0.062269 6.579 2.021 14.203
263 2 26 0.062279 4.879 1.356 15.883
264 2 26 0.062571 2.483 1.478 15.332
265 2 5 -0.039396 0.821 3.503 12.156
266 2 5 -0.015033 0.865 3.369 10.609
267 2 5 -0.044868 1.488 4.543 9.867
268 2 5 -0.058762 2.188 4.301 8.670
269 2 5 -0.061984 2.765 5.346 7.948
270 2 5 -0.062248 2.659 6.654 8.414
271 2 5 -0.061984 1.983 6.913 9.602
272 2 5 -0.058762 1.403 5.865 10.323
273 2 26 0.027901 1.422 4.360 12.484
274 2 26 0.027901 -0.203 3.746 12.457
275 2 26 0.035266 1.580 2.564 10.425
276 2 26 0.062571 2.283 3.286 8.288
277 2 26 0.062279 3.294 5.142 7.022
278 2 26 0.062269 3.105 7.470 7.850
279 2 26 0.062279 1.902 7.932 9.971
280 2 26 0.062571 0.873 6.105 11.241
281 2 5 -0.039396 -0.464 2.858 9.982
282 2 5 -0.015033 -1.617 3.809 9.550
283 2 5 -0.044868 -2.161 4.667 10.693
284 2 5 -0.058762 -2.009 6.059 10.746
285 2 5 -0.061984 -2.530 6.801 11.811
286 2 5 -0.062248 -3.220 6.166 12.839
287 2 5 -0.061984 -3.394 4.787 12.800
288 2 5 -0.058762 -2.874 4.048 11.736
289 2 26 0.027901 -0.188 2.245 9.116
290 2 26 0.027901 -0.900 2.132 10.674
291 2 26 0.035266 -2.457 3.136 9.320
292 2 26 0.062571 -1.483 6.597 9.963
293 2 26 0.062279 -2.398 7.881 11.833
294 2 26 0.062269 -3.626 6.745 13.662
295 2 26 0.062279 -3.939 4.285 13.595
296 2 26 0.062571 -3.032 2.973 11.728
297 2 5 -0.039396 -1.390 4.583 8.220
298 2 5 -0.015043 -1.020 3.729 6.975
299 2 5 -0.044868 -2.109 2.717 6.651
300 2 5 -0.058762 -3.394 3.120 6.253
301 2 5 -0.061984 -4.377 2.176 5.951
302 2 5 -0.062248 -4.091 0.817 6.045
303 2 5 -0.061984 -2.826 0.399 6.450
304 2 5 -0.058762 -1.843 1.342 6.756
305 2 26 0.027901 -2.300 5.156 7.993
306 2 26 0.027901 -0.609 5.335 8.360
307 2 26 0.035265 -0.094 3.189 7.198
308 2 26 0.062571 -3.639 4.178 6.172
309 2 26 0.062279 -5.366 2.503 5.640
310 2 26 0.062269 -4.856 0.082 5.804
311 2 26 0.062279 -2.603 -0.661 6.533
312 2 26 0.062571 -0.860 0.992 7.063
313 2 5 -0.039683 -0.693 4.675 5.783
314 2 5 -0.018457 0.167 4.041 4.661
315 2 5 -0.045165 0.833 5.131 3.826
316 2 5 -0.058773 2.232 5.208 3.765
317 2 5 -0.061984 2.859 6.193 2.999
318 2 5 -0.062248 2.094 7.112 2.283
319 2 5 -0.061984 0.704 7.047 2.334
320 2 5 -0.058773 0.076 6.062 3.097
321 2 26 0.02789 -0.129 5.528 6.184
322 2 26 0.02789 -1.612 5.101 5.362
323 2 26 0.034958 0.961 3.450 5.137
324 2 26 0.062571 2.848 4.496 4.310
325 2 26 0.062279 3.945 6.240 2.958
326 2 26 0.062269 2.580 7.876 1.681
327 2 26 0.062279 0.106 7.764 1.775
328 2 26 0.062571 -1.011 6.027 3.117
329 2 5 -0.058394 -0.611 3.097 3.737
330 2 26 0.023656 -0.927 2.194 4.261
331 2 26 0.023656 0.013 2.767 2.898
332 2 26 0.023656 -1.499 3.582 3.320
333 2 5 -0.064799 -4.861 -5.815 15.858
334 2 26 0.023057 -5.271 -5.631 14.860
335 2 26 0.023057 -5.696 -5.906 16.561
336 2 26 0.023057 -4.337 -6.775 15.848
337 3 5 -0.049212 1.808 -10.371 -17.993
338 3 5 -0.015877 1.569 -9.464 -16.769
339 3 5 -0.044901 2.523 -9.770 -15.619
340 3 5 -0.058763 3.368 -8.757 -15.134
341 3 5 -0.061984 4.233 -9.000 -14.066
342 3 5 -0.062248 4.270 -10.259 -13.472
343 3 5 -0.061984 3.442 -11.276 -13.946
344 3 5 -0.058763 2.571 -11.033 -15.010
345 3 26 0.026994 1.054 -10.164 -18.763
346 3 26 0.026994 1.694 -11.429 -17.723
347 3 26 0.035233 1.777 -8.435 -17.078
348 3 26 0.062571 3.353 -7.765 -15.582
349 3 26 0.062279 4.873 -8.203 -13.693
350 3 26 0.062269 4.940 -10.449 -12.639
351 3 26 0.062279 3.475 -12.260 -13.484
352 3 26 0.062571 1.931 -11.841 -15.358
353 3 5 -0.039428 0.105 -9.554 -16.265
354 3 5 -0.015033 -0.997 -8.912 -17.163
355 3 5 -0.044868 -2.431 -9.087 -16.651
356 3 5 -0.058762 -2.736 -9.733 -15.444
357 3 5 -0.061984 -4.061 -9.919 -15.037
358 3 5 -0.062248 -5.109 -9.452 -15.822
359 3 5 -0.061984 -4.833 -8.809 -17.023
360 3 5 -0.058762 -3.509 -8.642 -17.439
361 3 26 0.027901 0.053 -9.129 -15.258
362 3 26 0.027901 -0.141 -10.618 -16.135
363 3 26 0.035266 -0.982 -9.516 -18.083
364 3 26 0.062571 -1.957 -10.119 -14.793
365 3 26 0.062279 -4.272 -10.435 -14.104
366 3 26 0.062269 -6.139 -9.591 -15.501
367 3 26 0.062279 -5.647 -8.448 -17.645
368 3 26 0.062571 -3.332 -8.166 -18.401
369 3 5 -0.039396 -0.693 -7.461 -17.630
370 3 5 -0.015033 -0.893 -6.254 -16.657
371 3 5 -0.044868 -0.443 -5.005 -17.407
372 3 5 -0.058762 -1.392 -4.047 -17.794
373 3 5 -0.061984 -1.017 -2.923 -18.531
374 3 5 -0.062248 0.314 -2.742 -18.896
375 3 5 -0.061984 1.270 -3.684 -18.523
376 3 5 -0.058762 0.895 -4.808 -17.783
377 3 26 0.027901 -1.319 -7.259 -18.513
378 3 26 0.027901 0.318 -7.440 -18.046
379 3 26 0.035266 -1.972 -6.168 -16.495
380 3 26 0.062571 -2.434 -4.171 -17.521
381 3 26 0.062279 -1.766 -2.188 -18.816
382 3 26 0.062269 0.606 -1.865 -19.467
383 3 26 0.062279 2.311 -3.540 -18.797
384 3 26 0.062571 1.662 -5.522 -17.491
385 3 5 -0.039396 -0.252 -6.457 -15.271
386 3 5 -0.015033 -0.197 -5.311 -14.224
387 3 5 -0.044868 1.054 -4.439 -14.401
388 3 5 -0.058762 1.017 -3.137 -14.918
389 3 5 -0.061984 2.188 -2.385 -15.053
390 3 5 -0.062248 3.414 -2.922 -14.669
391 3 5 -0.061984 3.471 -4.210 -14.147
392 3 5 -0.058762 2.301 -4.961 -14.012
393 3 26 0.027901 0.763 -6.847 -15.412
394 3 26 0.027901 -0.819 -7.260 -14.788
395 3 26 0.035266 0.005 -5.811 -13.267
396 3 26 0.062571 0.082 -2.695 -15.250
397 3 26 0.062279 2.140 -1.382 -15.465
398 3 26 0.062269 4.322 -2.336 -14.775
399 3 26 0.062279 4.424 -4.631 -13.838
400 3 26 0.062571 2.366 -5.962 -13.589
401 3 5 -0.039396 -1.493 -4.494 -13.995
402 3 5 -0.015033 -2.698 -5.147 -13.255
403 3 5 -0.044868 -2.263 -5.878 -11.991
404 3 5 -0.058762 -2.074 -5.140 -10.809
405 3 5 -0.061984 -1.657 -5.760 -9.630
406 3 5 -0.062248 -1.413 -7.130 -9.612
407 3 5 -0.061984 -1.585 -7.878 -10.774
408 3 5 -0.058762 -2.003 -7.257 -11.955
409 3 26 0.027901 -1.839 -4.055 -14.936
410 3 26 0.027901 -1.216 -3.630 -13.372
411 3 26 0.035266 -3.266 -4.286 -12.891
412 3 26 0.062571 -2.258 -4.067 -10.799
413 3 26 0.062279 -1.526 -5.172 -8.725
414 3 26 0.062269 -1.092 -7.615 -8.695
415 3 26 0.062279 -1.395 -8.948 -10.764
416 3 26 0.062571 -2.120 -7.875 -12.840
417 3 5 -0.039396 -3.675 -5.894 -14.198
418 3 5 -0.015033 -5.191 -5.887 -13.834
419 3 5 -0.044868 -5.508 -6.275 -12.395
420 3 5 -0.058762 -5.863 -5.349 -11.406
421 3 5 -0.061984 -6.143 -5.761 -10.099
422 3 5 -0.062248 -6.082 -7.110 -9.761
423 3 5 -0.061984 -5.738 -8.048 -10.728
424 3 5 -0.058762 -5.454 -7.632 -12.031
425 3 26 0.027901 -3.596 -5.489 -15.210
426 3 26 0.027901 -3.357 -6.935 -14.300
427 3 26 0.035266 -5.595 -6.733 -14.416
428 3 26 0.062571 -5.931 -4.288 -11.620
429 3 26 0.062279 -6.410 -5.024 -9.345
430 3 26 0.062269 -6.299 -7.427 -8.745
431 3 26 0.062279 -5.687 -9.102 -10.469
432 3 26 0.062571 -5.179 -8.381 -12.768
433 3 5 -0.039396 -6.050 -4.709 -14.411
434 3 5 -0.015033 -5.587 -3.245 -14.167
435 3 5 -0.044868 -6.669 -2.285 -13.696
436 3 5 -0.058762 -6.317 -1.231 -12.832
437 3 5 -0.061984 -7.272 -0.317 -12.384
438 3 5 -0.062248 -8.599 -0.445 -12.784
439 3 5 -0.061984 -8.969 -1.488 -13.627
440 3 5 -0.058762 -8.012 -2.401 -14.078
441 3 26 0.027901 -7.065 -4.858 -14.021
442 3 26 0.027901 -6.135 -4.873 -15.490
443 3 26 0.035266 -4.928 -3.309 -13.298
444 3 26 0.062571 -5.285 -1.112 -12.506
445 3 26 0.062279 -6.981 0.495 -11.724
446 3 26 0.062269 -9.343 0.269 -12.439
447 3 26 0.062279 -10.005 -1.593 -13.939
448 3 26 0.062571 -8.334 -3.197 -14.744
449 3 5 -0.039396 -4.682 -2.675 -15.298
450 3 5 -0.015033 -5.251 -1.951 -16.552
451 3 5 -0.044868 -6.209 -2.814 -17.373
452 3 5 -0.058762 -7.578 -2.540 -17.492
453 3 5 -0.061984 -8.414 -3.357 -18.260
454 3 5 -0.062248 -7.895 -4.460 -18.930
455 3 5 -0.061984 -6.536 -4.744 -18.837
456 3 5 -0.058762 -5.703 -3.927 -18.070
457 3 26 0.027901 -3.962 -2.002 -14.815
458 3 26 0.027901 -4.054 -3.492 -15.665
459 3 26 0.035266 -4.382 -1.835 -17.219
460 3 26 0.062571 -8.025 -1.686 -16.991
461 3 26 0.062279 -9.474 -3.126 -18.335
462 3 26 0.062269 -8.545 -5.091 -19.528
463 3 26 0.062279 -6.122 -5.600 -19.364
464 3 26 0.062571 -4.646 -4.169 -18.022
465 3 5 -0.039396 -5.737 -0.492 -16.325
466 3 5 -0.015043 -4.723 0.484 -15.663
467 3 5 -0.044868 -3.460 0.625 -16.500
468 3 5 -0.058762 -3.487 1.191 -17.784
469 3 5 -0.061984 -2.315 1.320 -18.532
470 3 5 -0.062248 -1.102 0.882 -18.008
471 3 5 -0.061984 -1.059 0.306 -16.742
472 3 5 -0.058762 -2.230 0.173 -15.994
473 3 26 0.027901 -6.042 -0.074 -17.295
474 3 26 0.027901 -6.648 -0.497 -15.720
475 3 26 0.035265 -4.453 0.076 -14.684
476 3 26 0.062571 -4.424 1.541 -18.212
477 3 26 0.062279 -2.350 1.766 -19.523
478 3 26 0.062269 -0.189 0.988 -18.590
479 3 26 0.062279 -0.114 -0.045 -16.335
480 3 26 0.062571 -2.171 -0.274 -15.004
481 3 5 -0.039683 -5.426 1.845 -15.387
482 3 5 -0.018457 -4.751 2.721 -14.302
483 3 5 -0.045165 -5.741 3.749 -13.762
484 3 5 -0.058773 -6.094 3.734 -12.404
485 3 5 -0.061984 -6.992 4.673 -11.891
486 3 5 -0.062248 -7.547 5.639 -12.729
487 3 5 -0.061984 -7.206 5.665 -14.079
488 3 5 -0.058773 -6.307 4.730 -14.593
489 3 26 0.02789 -6.446 1.625 -15.041
490 3 26 0.02789 -5.546 2.416 -16.316
491 3 26 0.034958 -4.462 2.065 -13.470
492 3 26 0.062571 -5.667 2.995 -11.731
493 3 26 0.062279 -7.254 4.652 -10.836
494 3 26 0.062269 -8.241 6.374 -12.330
495 3 26 0.062279 -7.639 6.418 -14.733
496 3 26 0.062571 -6.051 4.773 -15.649
497 3 5 -0.058394 -3.484 3.439 -14.780
498 3 26 0.023656 -2.675 2.734 -14.978
499 3 26 0.023656 -3.113 4.130 -14.014
500 3 26 0.023656 -3.667 4.018 -15.690
501 3 5 -0.064799 3.181 -10.170 -18.625
502 3 26 0.023057 3.314 -9.133 -18.947
503 3 26 0.023057 3.285 -10.818 -19.503
504 3 26 0.023057 3.988 -10.426 -17.933
505 4 5 -0.049212 3.246 14.400 7.048
506 4 5 -0.015877 4.107 13.562 8.015
507 4 5 -0.044901 3.602 13.626 9.453
508 4 5 -0.058763 3.233 12.440 10.109
509 4 5 -0.061984 2.792 12.464 11.433
510 4 5 -0.062248 2.709 13.674 12.117
511 4 5 -0.061984 3.065 14.861 11.478
512 4 5 -0.058763 3.514 14.838 10.155
513 4 26 0.026994 3.689 14.382 6.044
514 4 26 0.026994 3.222 15.452 7.359
515 4 26 0.035233 4.025 12.516 7.705
516 4 26 0.062571 3.294 11.483 9.593
517 4 26 0.062279 2.521 11.537 11.933
518 4 26 0.062269 2.368 13.695 13.149
519 4 26 0.062279 2.996 15.806 12.012
520 4 26 0.062571 3.791 15.776 9.680
521 4 5 -0.039428 5.599 13.987 7.971
522 4 5 -0.015033 6.401 13.629 6.683
523 4 5 -0.044868 7.851 14.128 6.664
524 4 5 -0.058762 8.433 14.817 7.739
525 4 5 -0.061984 9.742 15.303 7.663
526 4 5 -0.062248 10.501 15.101 6.515
527 4 5 -0.061984 9.946 14.423 5.437
528 4 5 -0.058762 8.630 13.955 5.506
529 4 26 0.027901 6.107 13.576 8.848
530 4 26 0.027901 5.641 15.078 8.104
531 4 26 0.035266 5.920 14.220 5.889
532 4 26 0.062571 7.885 15.004 8.658
533 4 26 0.062279 10.166 15.846 8.503
534 4 26 0.062269 11.521 15.474 6.460
535 4 26 0.062279 10.531 14.268 4.534
536 4 26 0.062571 8.218 13.460 4.630
537 4 5 -0.039396 6.265 12.151 6.219
538 4 5 -0.015033 7.063 11.015 6.939
539 4 5 -0.044868 6.645 9.703 6.284
540 4 5 -0.058762 7.566 8.997 5.496
541 4 5 -0.061984 7.196 7.823 4.838
542 4 5 -0.062248 5.896 7.339 4.956
543 4 5 -0.061984 4.967 8.028 5.732
544 4 5 -0.058762 5.339 9.202 6.393
545 4 26 0.027901 6.549 12.109 5.157
546 4 26 0.027901 5.201 11.898 6.191
547 4 26 0.035266 8.116 11.182 6.697
548 4 26 0.062571 8.583 9.358 5.391
549 4 26 0.062279 7.926 7.286 4.237
550 4 26 0.062269 5.609 6.424 4.446
551 4 26 0.062279 3.955 7.648 5.835
552 4 26 0.062571 4.600 9.714 7.005
553 4 5 -0.039396 6.950 11.050 8.476
554 4 5 -0.015033 7.530 9.913 9.360
555 4 5 -0.044868 6.520 8.775 9.558
556 4 5 -0.058762 6.641 7.523 8.942
557 4 5 -0.061984 5.693 6.519 9.163
558 4 5 -0.062248 4.610 6.752 10.007
559 4 5 -0.061984 4.476 7.986 10.634
560 4 5 -0.058762 5.423 8.987 10.414
561 4 26 0.027901 5.896 11.193 8.743
562 4 26 0.027901 7.469 11.959 8.798
563 4 26 0.035266 7.594 10.344 10.369
564 4 26 0.062571 7.460 7.314 8.258
565 4 26 0.062279 5.799 5.559 8.667
566 4 26 0.062269 3.875 5.970 10.176
567 4 26 0.062279 3.637 8.169 11.301
568 4 26 0.062571 5.306 9.942 10.924
569 4 5 -0.039396 8.962 9.419 9.034
570 4 5 -0.015033 10.185 10.329 9.355
571 4 5 -0.044868 10.101 10.927 10.753
572 4 5 -0.058762 10.524 10.154 11.849
573 4 5 -0.061984 10.448 10.648 13.153
574 4 5 -0.062248 9.941 11.923 13.385
575 4 5 -0.061984 9.509 12.701 12.315
576 4 5 -0.058762 9.585 12.206 11.010
577 4 26 0.027901 9.022 9.082 7.994
578 4 26 0.027901 9.126 8.508 9.630
579 4 26 0.035266 11.018 9.621 9.408
580 4 26 0.062571 10.923 9.154 11.692
581 4 26 0.062279 10.788 10.038 13.985
582 4 26 0.062269 9.885 12.312 14.398
583 4 26 0.062279 9.111 13.697 12.493
584 4 26 0.062571 9.233 12.842 10.203
585 4 5 -0.039396 10.562 11.292 8.200
586 4 5 -0.015033 12.069 11.636 7.997
587 4 5 -0.044868 12.803 12.074 9.259
588 4 5 -0.058762 13.687 11.247 9.965
589 4 5 -0.061984 14.333 11.701 11.118
590 4 5 -0.062248 14.115 12.996 11.582
591 4 5 -0.061984 13.246 13.836 10.894
592 4 5 -0.058762 12.599 13.378 9.745
593 4 26 0.027901 10.204 10.889 7.249
594 4 26 0.027901 10.014 12.231 8.317
595 4 26 0.035266 12.039 12.558 7.393
596 4 26 0.062571 13.897 10.233 9.642
597 4 26 0.062279 15.010 11.040 11.655
598 4 26 0.062269 14.618 13.345 12.479
599 4 26 0.062279 13.070 14.847 11.252
600 4 26 0.062571 11.918 14.049 9.229
601 4 5 -0.039396 12.886 10.696 7.044
602 4 5 -0.015033 12.869 9.163 7.297
603 4 5 -0.044868 14.228 8.477 7.260
604 4 5 -0.058762 14.452 7.362 8.088
605 4 5 -0.061984 15.677 6.692 8.079
606 4 5 -0.062248 16.703 7.130 7.246
607 4 5 -0.061984 16.504 8.239 6.429
608 4 5 -0.058762 15.276 8.907 6.437
609 4 26 0.027901 13.916 11.075 7.059
610 4 26 0.027901 12.530 10.886 6.027
611 4 26 0.035266 12.580 9.063 8.346
612 4 26 0.062571 13.665 7.002 8.748
613 4 26 0.062279 15.830 5.829 8.719
614 4 26 0.062269 17.656 6.607 7.234
615 4 26 0.062279 17.304 8.586 5.779
616 4 26 0.062571 15.153 9.763 5.778
617 4 5 -0.039396 11.756 8.407 6.515
618 4 5 -0.015033 11.963 7.848 5.078
619 4 5 -0.044868 12.343 8.919 4.056
620 4 5 -0.058762 13.597 8.973 3.431
621 4 5 -0.061984 13.895 9.969 2.497
622 4 5 -0.062248 12.943 10.927 2.162
623 4 5 -0.061984 11.687 10.885 2.760
624 4 5 -0.058762 11.391 9.889 3.692
625 4 26 0.027901 11.427 7.581 7.156
626 4 26 0.027901 10.879 9.059 6.475
627 4 26 0.035266 10.957 7.539 4.756
628 4 26 0.062571 14.369 8.242 3.657
629 4 26 0.062279 14.876 9.993 2.027
630 4 26 0.062269 13.176 11.698 1.435
631 4 26 0.062279 10.936 11.625 2.498
632 4 26 0.062571 10.400 9.876 4.136
633 4 5 -0.039396 12.799 6.540 4.978
634 4 5 -0.015043 12.334 5.349 5.862
635 4 5 -0.044868 10.913 4.925 5.521
636 4 5 -0.058762 10.585 4.392 4.264
637 4 5 -0.061984 9.277 4.000 3.974
638 4 5 -0.062248 8.279 4.138 4.935
639 4 5 -0.061984 8.583 4.677 6.182
640 4 5 -0.058762 9.891 5.072 6.473
641 4 26 0.027901 12.807 6.214 3.928
642 4 26 0.027901 13.845 6.753 5.216
643 4 26 0.035265 12.363 5.673 6.908
644 4 26 0.062571 11.351 4.275 3.499
645 4 26 0.062279 9.039 3.584 2.998
646 4 26 0.062269 7.261 3.827 4.709
647 4 26 0.062279 7.804 4.793 6.930
648 4 26 0.062571 10.106 5.484 7.456
649 4 5 -0.039683 13.362 4.187 5.740
650 4 5 -0.018457 13.339 3.168 6.907
651 4 5 -0.045165 14.654 2.394 6.959
652 4 5 -0.058773 15.470 2.479 8.097
653 4 5 -0.061984 16.672 1.771 8.165
654 4 5 -0.062248 17.072 0.969 7.098
655 4 5 -0.061984 16.272 0.877 5.962
656 4 5 -0.058773 15.069 1.581 5.892
657 4 26 0.02789 14.365 4.636 5.719
658 4 26 0.02789 13.251 3.669 4.780
659 4 26 0.034958 13.243 3.730 7.845
660 4 26 0.062571 15.173 3.091 8.944
661 4 26 0.062279 17.293 1.842 9.055
662 4 26 0.062269 18.004 0.413 7.152
663 4 26 0.062279 16.583 0.251 5.128
664 4 26 0.062571 14.458 1.489 4.998
665 4 5 -0.058394 12.170 2.179 6.846
666 4 26 0.023656 11.215 2.677 7.017
667 4 26 0.023656 12.265 1.413 7.625
668 4 26 0.023656 12.125 1.666 5.880
669 4 5 -0.064799 1.814 13.890 6.930
670 4 26 0.023057 1.797 12.853 6.581
671 4 26 0.023057 1.258 14.504 6.213
672 4 26 0.023057 1.284 13.944 7.886
673 5 5 -0.049212 4.325 -1.845 0.073
674 5 5 -0.015877 3.006 -2.064 -0.695
675 5 5 -0.044901 2.903 -3.463 -1.294
676 5 5 -0.058763 1.833 -4.296 -0.924
677 5 5 -0.061984 1.698 -5.571 -1.475
678 5 5 -0.062248 2.633 -6.034 -2.398
679 5 5 -0.061984 3.704 -5.222 -2.769
680 5 5 -0.058763 3.837 -3.943 -2.225
681 5 26 0.026994 4.385 -0.806 0.421
682 5 26 0.026994 5.190 -2.003 -0.584
683 5 26 0.035233 2.188 -1.976 0.027
684 5 26 0.062571 1.089 -3.952 -0.207
685 5 26 0.062279 0.858 -6.201 -1.189
686 5 26 0.062269 2.528 -7.025 -2.829
687 5 26 0.062279 4.436 -5.586 -3.487
688 5 26 0.062571 4.677 -3.326 -2.535
689 5 5 -0.039428 2.810 -1.007 -1.813
690 5 5 -0.015033 2.498 0.454 -1.364
691 5 5 -0.044868 2.378 1.470 -2.505
692 5 5 -0.058762 2.494 1.114 -3.857
693 5 5 -0.061984 2.431 2.079 -4.867
694 5 5 -0.062248 2.240 3.419 -4.548
695 5 5 -0.061984 2.124 3.797 -3.215
696 5 5 -0.058762 2.207 2.834 -2.206
697 5 26 0.027901 2.029 -1.357 -2.495
698 5 26 0.027901 3.727 -0.986 -2.420
699 5 26 0.035266 3.407 0.775 -0.834
700 5 26 0.062571 2.646 0.083 -4.163
701 5 26 0.062279 2.538 1.780 -5.907
702 5 26 0.062269 2.185 4.167 -5.335
703 5 26 0.062279 1.982 4.843 -2.958
704 5 26 0.062571 2.147 3.171 -1.173
705 5 5 -0.039396 1.356 0.584 -0.316
706 5 5 -0.015033 -0.141 0.482 -0.753
707 5 5 -0.044868 -0.978 0.582 0.517
708 5 5 -0.058762 -1.768 1.719 0.740
709 5 5 -0.061984 -2.500 1.864 1.919
710 5 5 -0.062248 -2.449 0.874 2.896
711 5 5 -0.061984 -1.668 -0.261 2.693
712 5 5 -0.058762 -0.937 -0.407 1.512
713 5 26 0.027901 1.472 1.559 0.181
714 5 26 0.027901 1.556 -0.122 0.496
715 5 26 0.035266 -0.345 1.374 -1.352
716 5 26 0.062571 -1.819 2.502 -0.009
717 5 26 0.062279 -3.112 2.750 2.071
718 5 26 0.062269 -3.022 0.987 3.812
719 5 26 0.062279 -1.634 -1.040 3.450
720 5 26 0.062571 -0.346 -1.310 1.371
721 5 5 -0.039396 -0.447 -0.734 -1.651
722 5 5 -0.015033 -1.901 -1.103 -2.052
723 5 5 -0.044868 -2.564 -2.016 -1.011
724 5 5 -0.058762 -3.568 -1.582 -0.135
725 5 5 -0.061984 -4.141 -2.460 0.790
726 5 5 -0.062248 -3.721 -3.785 0.852
727 5 5 -0.061984 -2.731 -4.238 -0.014
728 5 5 -0.058762 -2.159 -3.361 -0.938
729 5 26 0.027901 0.026 -1.619 -1.209
730 5 26 0.027901 0.075 -0.553 -2.596
731 5 26 0.035266 -1.795 -1.775 -2.914
732 5 26 0.062571 -3.903 -0.549 -0.139
733 5 26 0.062279 -4.910 -2.102 1.468
734 5 26 0.062269 -4.168 -4.465 1.573
735 5 26 0.062279 -2.406 -5.274 0.025
736 5 26 0.062571 -1.394 -3.738 -1.615
737 5 5 -0.039396 -2.818 0.047 -2.538
738 5 5 -0.015033 -2.570 0.696 -3.933
739 5 5 -0.044868 -2.355 -0.350 -5.019
740 5 5 -0.058762 -3.477 -0.951 -5.617
741 5 5 -0.061984 -3.333 -1.929 -6.602
742 5 5 -0.062248 -2.063 -2.331 -7.003
743 5 5 -0.061984 -0.939 -1.756 -6.418
744 5 5 -0.058762 -1.083 -0.776 -5.432
745 5 26 0.027901 -2.882 0.832 -1.778
746 5 26 0.027901 -3.837 -0.365 -2.598
747 5 26 0.035266 -3.537 1.148 -4.175
748 5 26 0.062571 -4.481 -0.653 -5.318
749 5 26 0.062279 -4.214 -2.374 -7.057
750 5 26 0.062269 -1.948 -3.089 -7.773
751 5 26 0.062279 0.055 -2.068 -6.729
752 5 26 0.062571 -0.181 -0.355 -4.996
753 5 5 -0.039396 -1.577 1.886 -3.896
754 5 5 -0.015033 -1.812 3.065 -4.890
755 5 5 -0.044868 -2.025 2.649 -6.340
756 5 5 -0.058762 -3.278 2.640 -6.966
757 5 5 -0.061984 -3.415 2.248 -8.301
758 5 5 -0.062248 -2.298 1.867 -9.039
759 5 5 -0.061984 -1.043 1.874 -8.441
760 5 5 -0.058762 -0.910 2.262 -7.105
761 5 26 0.027901 -1.558 2.322 -2.894
762 5 26 0.027901 -0.561 1.514 -4.047
763 5 26 0.035266 -0.833 3.572 -4.916
764 5 26 0.062571 -4.178 2.935 -6.437
765 5 26 0.062279 -4.399 2.242 -8.764
766 5 26 0.062269 -2.408 1.563 -10.075
767 5 26 0.062279 -0.167 1.576 -9.011
768 5 26 0.062571 0.079 2.251 -6.657
769 5 5 -0.039396 -2.728 4.236 -4.392
770 5 5 -0.015033 -4.143 3.907 -3.839
771 5 5 -0.044868 -5.272 4.778 -4.371
772 5 5 -0.058762 -6.554 4.217 -4.520
773 5 5 -0.061984 -7.625 4.979 -4.991
774 5 5 -0.062248 -7.431 6.316 -5.328
775 5 5 -0.061984 -6.168 6.885 -5.200
776 5 5 -0.058762 -5.097 6.122 -4.726
777 5 26 0.027901 -2.799 4.940 -5.231
778 5 26 0.027901 -2.167 4.773 -3.620
779 5 26 0.035266 -4.379 2.927 -4.260
780 5 26 0.062571 -6.729 3.173 -4.262
781 5 26 0.062279 -8.609 4.532 -5.092
782 5 26 0.062269 -8.264 6.912 -5.691
783 5 26 0.062279 -6.012 7.928 -5.466
784 5 26 0.062571 -4.127 6.602 -4.629
785 5 5 -0.039396 -4.183 3.688 -2.299
786 5 5 -0.015033 -4.402 4.848 -1.285
787 5 5 -0.044868 -3.348 5.950 -1.381
788 5 5 -0.058762 -3.636 7.251 -1.819
789 5 5 -0.061984 -2.638 8.228 -1.884
790 5 5 -0.062248 -1.333 7.925 -1.505
791 5 5 -0.061984 -1.028 6.645 -1.055
792 5 5 -0.058762 -2.026 5.671 -0.990
793 5 26 0.027901 -4.945 2.923 -2.110
794 5 26 0.027901 -3.252 3.192 -2.010
795 5 26 0.035266 -4.202 4.394 -0.302
796 5 26 0.062571 -4.641 7.533 -2.119
797 5 26 0.062279 -2.883 9.230 -2.230
798 5 26 0.062269 -0.561 8.686 -1.554
799 5 26 0.062279 -0.013 6.404 -0.750
800 5 26 0.062571 -1.759 4.683 -0.627
801 5 5 -0.039396 -5.863 5.366 -1.161
802 5 5 -0.015043 -6.956 4.300 -0.870
803 5 5 -0.044868 -6.692 3.576 0.442
804 5 5 -0.058762 -6.723 4.249 1.674
805 5 5 -0.061984 -6.487 3.565 2.868
806 5 5 -0.062248 -6.213 2.200 2.847
807 5 5 -0.061984 -6.164 1.519 1.633
808 5 5 -0.058762 -6.398 2.203 0.438
809 5 26 0.027901 -5.895 6.125 -0.366
810 5 26 0.027901 -6.143 5.900 -2.073
811 5 26 0.035265 -6.940 3.569 -1.684
812 5 26 0.062571 -6.937 5.316 1.713
813 5 26 0.062279 -6.520 4.099 3.815
814 5 26 0.062269 -6.034 1.667 3.778
815 5 26 0.062279 -5.942 0.456 1.614
816 5 26 0.062571 -6.361 1.649 -0.497
817 5 5 -0.039683 -8.358 4.974 -0.921
818 5 5 -0.018457 -9.542 4.005 -1.165
819 5 5 -0.045165 -10.755 4.773 -1.684
820 5 5 -0.058773 -11.282 4.474 -2.949
821 5 5 -0.061984 -12.396 5.160 -3.437
822 5 5 -0.062248 -12.999 6.153 -2.665
823 5 5 -0.061984 -12.485 6.460 -1.407
824 5 5 -0.058773 -11.373 5.774 -0.917
825 5 26 0.02789 -8.348 5.693 -1.753
826 5 26 0.02789 -8.535 5.571 -0.018
827 5 26 0.034958 -9.239 3.291 -1.942
828 5 26 0.062571 -10.833 3.698 -3.565
829 5 26 0.062279 -12.797 4.916 -4.418
830 5 26 0.062269 -13.870 6.683 -3.040
831 5 26 0.062279 -12.954 7.233 -0.804
832 5 26 0.062571 -10.993 6.026 0.070
833 5 5 -0.058394 -9.946 3.192 0.070
834 5 26 0.023656 -9.173 2.474 0.347
835 5 26 0.023656 -10.855 2.611 -0.125
836 5 26 0.023656 -10.142 3.838 0.931
837 5 5 -0.064799 4.462 -2.749 1.292
838 5 26 0.023057 3.637 -2.588 1.993
839 5 26 0.023057 5.402 -2.532 1.813
840 5 26 0.023057 4.480 -3.807 1.013
841 6 5 -0.049212 14.763 5.971 -3.319
842 6 5 -0.015877 13.930 4.835 -2.691
843 6 5 -0.044901 13.979 4.849 -1.166
844 6 5 -0.058763 12.784 4.975 -0.437
845 6 5 -0.061984 12.795 4.964 0.958
846 6 5 -0.062248 14.000 4.834 1.644
847 6 5 -0.061984 15.194 4.715 0.935
848 6 5 -0.058763 15.185 4.718 -0.461
849 6 26 0.026994 14.756 5.876 -4.413
850 6 26 0.026994 15.813 5.903 -3.007
851 6 26 0.035233 12.885 5.003 -2.968
852 6 26 0.062571 11.831 5.075 -0.955
853 6 26 0.062279 11.861 5.051 1.509
854 6 26 0.062269 14.009 4.823 2.731
855 6 26 0.062279 16.135 4.617 1.473
856 6 26 0.062571 16.129 4.617 -0.992
857 6 5 -0.039428 14.373 3.442 -3.210
858 6 5 -0.015033 14.032 3.095 -4.692
859 6 5 -0.044868 14.550 1.735 -5.173
860 6 5 -0.058762 15.240 0.843 -4.337
861 6 5 -0.061984 15.742 -0.366 -4.827
862 6 5 -0.062248 15.556 -0.715 -6.161
863 6 5 -0.061984 14.878 0.152 -7.009
864 6 5 -0.058762 14.394 1.370 -6.523
865 6 26 0.027901 13.963 2.673 -2.548
866 6 26 0.027901 15.464 3.370 -3.087
867 6 26 0.035266 14.623 3.813 -5.282
868 6 26 0.062571 15.414 1.067 -3.289
869 6 26 0.062279 16.285 -1.034 -4.164
870 6 26 0.062269 15.942 -1.659 -6.538
871 6 26 0.062279 14.735 -0.111 -8.053
872 6 26 0.062571 13.899 2.038 -7.224
873 6 5 -0.039396 12.556 3.360 -5.101
874 6 5 -0.015033 11.426 2.362 -4.689
875 6 5 -0.044868 10.113 2.955 -5.186
876 6 5 -0.058762 9.423 2.332 -6.237
877 6 5 -0.061984 8.248 2.884 -6.751
878 6 5 -0.062248 7.748 4.070 -6.224
879 6 5 -0.061984 8.421 4.705 -5.183
880 6 5 -0.058762 9.595 4.152 -4.666
881 6 26 0.027901 12.524 3.434 -6.199
882 6 26 0.027901 12.290 4.373 -4.787
883 6 26 0.035266 11.607 1.444 -5.257
884 6 26 0.062571 9.797 1.407 -6.661
885 6 26 0.062279 7.724 2.382 -7.561
886 6 26 0.062269 6.832 4.498 -6.623
887 6 26 0.062279 8.028 5.627 -4.763
888 6 26 0.062571 10.094 4.658 -3.843
889 6 5 -0.039396 11.450 1.972 -3.198
890 6 5 -0.015033 10.315 1.126 -2.560
891 6 5 -0.044868 9.163 2.007 -2.057
892 6 5 -0.058762 7.916 2.079 -2.692
893 6 5 -0.061984 6.900 2.896 -2.185
894 6 5 -0.062248 7.114 3.649 -1.035
895 6 5 -0.061984 8.342 3.586 -0.386
896 6 5 -0.058762 9.357 2.771 -0.891
897 6 26 0.027901 11.579 2.884 -2.603
898 6 26 0.027901 12.363 1.385 -3.052
899 6 26 0.035266 10.740 0.744 -1.621
900 6 26 0.062571 7.722 1.524 -3.605
901 6 26 0.062279 5.944 2.946 -2.698
902 6 26 0.062269 6.323 4.284 -0.645
903 6 26 0.062279 8.511 4.166 0.518
904 6 26 0.062571 10.307 2.725 -0.361
905 6 5 -0.039396 9.841 -0.128 -3.336
906 6 5 -0.015033 10.763 -1.381 -3.418
907 6 5 -0.044868 11.351 -1.747 -2.062
908 6 5 -0.058762 10.577 -2.509 -1.169
909 6 5 -0.061984 11.063 -2.854 0.094
910 6 5 -0.062248 12.330 -2.436 0.491
911 6 5 -0.061984 13.109 -1.674 -0.375
912 6 5 -0.058762 12.623 -1.329 -1.640
913 6 26 0.027901 9.511 0.148 -4.342
914 6 26 0.027901 8.928 -0.485 -2.833
915 6 26 0.035266 10.065 -2.193 -3.643
916 6 26 0.062571 9.583 -2.845 -1.456
917 6 26 0.062279 10.451 -3.450 0.766
918 6 26 0.062269 12.711 -2.707 1.471
919 6 26 0.062279 14.099 -1.346 -0.069
920 6 26 0.062571 13.259 -0.729 -2.283
921 6 5 -0.039396 11.738 -1.355 -4.623
922 6 5 -0.015033 12.102 -2.712 -5.299
923 6 5 -0.044868 12.541 -3.810 -4.338
924 6 5 -0.058762 11.721 -4.883 -3.963
925 6 5 -0.061984 12.176 -5.863 -3.076
926 6 5 -0.062248 13.465 -5.793 -2.554
927 6 5 -0.061984 14.298 -4.741 -2.916
928 6 5 -0.058762 13.839 -3.761 -3.799
929 6 26 0.027901 11.337 -0.713 -5.412
930 6 26 0.027901 12.669 -0.865 -4.326
931 6 26 0.035266 13.027 -2.480 -5.852
932 6 26 0.062571 10.712 -4.987 -4.347
933 6 26 0.062279 11.520 -6.683 -2.793
934 6 26 0.062269 13.815 -6.555 -1.864
935 6 26 0.062279 15.304 -4.680 -2.510
936 6 26 0.062571 14.505 -2.944 -4.061
937 6 5 -0.039396 11.178 -3.186 -6.473
938 6 5 -0.015033 9.643 -3.267 -6.244
939 6 5 -0.044868 8.974 -4.547 -6.725
940 6 5 -0.058762 7.857 -5.038 -6.024
941 6 5 -0.061984 7.202 -6.200 -6.435
942 6 5 -0.062248 7.658 -6.897 -7.551
943 6 5 -0.061984 8.769 -6.435 -8.249
944 6 5 -0.058762 9.422 -5.269 -7.838
945 6 26 0.027901 11.569 -4.162 -6.789
946 6 26 0.027901 11.370 -2.519 -7.320
947 6 26 0.035266 9.533 -3.334 -5.159
948 6 26 0.062571 7.484 -4.509 -5.149
949 6 26 0.062279 6.337 -6.560 -5.888
950 6 26 0.062269 7.147 -7.801 -7.874
951 6 26 0.062279 9.130 -6.979 -9.118
952 6 26 0.062571 10.281 -4.931 -8.413
953 6 5 -0.039396 8.879 -1.968 -6.632
954 6 5 -0.015033 8.331 -1.705 -8.064
955 6 5 -0.044868 9.412 -1.724 -9.144
956 6 5 -0.058762 9.485 -2.708 -10.139
957 6 5 -0.061984 10.491 -2.679 -11.110
958 6 5 -0.062248 11.439 -1.660 -11.109
959 6 5 -0.061984 11.378 -0.666 -10.139
960 6 5 -0.058762 10.373 -0.696 -9.171
961 6 26 0.027901 8.044 -1.871 -5.926
962 6 26 0.027901 9.519 -1.118 -6.380
963 6 26 0.035266 8.011 -0.652 -8.046
964 6 26 0.062571 8.763 -3.519 -10.182
965 6 26 0.062279 10.530 -3.455 -11.872
966 6 26 0.062269 12.217 -1.639 -11.866
967 6 26 0.062279 12.111 0.137 -10.137
968 6 26 0.062571 10.345 0.098 -8.430
969 6 5 -0.039396 7.034 -2.477 -8.441
970 6 5 -0.015043 5.832 -2.334 -7.466
971 6 5 -0.044868 5.392 -0.883 -7.334
972 6 5 -0.058762 4.863 -0.171 -8.422
973 6 5 -0.061984 4.457 1.156 -8.279
974 6 5 -0.062248 4.577 1.792 -7.045
975 6 5 -0.061984 5.111 1.106 -5.958
976 6 5 -0.058762 5.521 -0.221 -6.102
977 6 26 0.027901 6.715 -2.148 -9.441
978 6 26 0.027901 7.258 -3.541 -8.552
979 6 26 0.035265 6.150 -2.696 -6.483
980 6 26 0.062571 4.760 -0.650 -9.395
981 6 26 0.062279 4.044 1.693 -9.129
982 6 26 0.062269 4.255 2.825 -6.933
983 6 26 0.062279 5.214 1.603 -4.998
984 6 26 0.062571 5.929 -0.739 -5.237
985 6 5 -0.039683 4.684 -3.279 -7.925
986 6 5 -0.018457 3.657 -3.643 -6.824
987 6 5 -0.045165 2.899 -4.912 -7.207
988 6 5 -0.058773 2.986 -6.051 -6.393
989 6 5 -0.061984 2.293 -7.217 -6.723
990 6 5 -0.062248 1.503 -7.259 -7.870
991 6 5 -0.061984 1.408 -6.135 -8.688
992 6 5 -0.058773 2.097 -4.968 -8.358
993 6 26 0.02789 5.145 -4.217 -8.265
994 6 26 0.02789 4.170 -2.868 -8.802
995 6 26 0.034958 4.212 -3.850 -5.899
996 6 26 0.062571 3.590 -6.038 -5.489
997 6 26 0.062279 2.367 -8.092 -6.081
998 6 26 0.062269 0.958 -8.164 -8.126
999 6 26 0.062279 0.791 -6.166 -9.583
1000 6 26 0.062571 2.003 -4.101 -9.008
1001 6 5 -0.058394 2.654 -2.527 -6.513
1002 6 26 0.023656 3.139 -1.673 -6.038
1003 6 26 0.023656 1.884 -2.876 -5.814
1004 6 26 0.023656 2.147 -2.177 -7.417
1005 6 5 -0.064799 14.236 7.359 -2.973
1006 6 26 0.023057 13.201 7.478 -3.309
1007 6 26 0.023057 14.847 8.122 -3.467
1008 6 26 0.023057 14.278 7.552 -1.897
1009 7 5 -0.049212 -10.361 2.975 -8.450
1010 7 5 -0.015877 -11.094 1.627 -8.290
1011 7 5 -0.044901 -12.237 1.461 -9.286
1012 7 5 -0.058763 -12.224 0.377 -10.179
1013 7 5 -0.061984 -13.269 0.184 -11.084
1014 7 5 -0.062248 -14.338 1.076 -11.113
1015 7 5 -0.061984 -14.362 2.161 -10.238
1016 7 5 -0.058763 -13.321 2.352 -9.327
1017 7 26 0.026994 -9.598 3.078 -7.668
1018 7 26 0.026994 -11.056 3.814 -8.319
1019 7 26 0.035233 -10.373 0.834 -8.512
1020 7 26 0.062571 -11.400 -0.334 -10.171
1021 7 26 0.062279 -13.252 -0.667 -11.761
1022 7 26 0.062269 -15.154 0.927 -11.815
1023 7 26 0.062279 -15.196 2.860 -10.264
1024 7 26 0.062571 -13.365 3.202 -8.650
1025 7 5 -0.039428 -11.631 1.433 -6.848
1026 7 5 -0.015033 -10.579 1.182 -5.725
1027 7 5 -0.044868 -11.158 1.062 -4.311
1028 7 5 -0.058762 -12.534 1.126 -4.043
1029 7 5 -0.061984 -13.019 1.065 -2.733
1030 7 5 -0.062248 -12.141 0.927 -1.664
1031 7 5 -0.061984 -10.774 0.863 -1.903
1032 7 5 -0.058762 -10.288 0.944 -3.211
1033 7 26 0.027901 -12.366 0.621 -6.853
1034 7 26 0.027901 -12.205 2.332 -6.580
1035 7 26 0.035266 -9.999 2.116 -5.682
1036 7 26 0.062571 -13.263 1.235 -4.840
1037 7 26 0.062279 -14.088 1.131 -2.550
1038 7 26 0.062269 -12.521 0.873 -0.646
1039 7 26 0.062279 -10.081 0.762 -1.072
1040 7 26 0.062571 -9.210 0.925 -3.357
1041 7 5 -0.039396 -9.533 0.076 -6.046
1042 7 5 -0.015033 -9.911 -1.436 -5.923
1043 7 5 -0.044868 -8.691 -2.231 -6.373
1044 7 5 -0.058762 -7.963 -2.977 -5.434
1045 7 5 -0.061984 -6.810 -3.669 -5.806
1046 7 5 -0.062248 -6.365 -3.622 -7.123
1047 7 5 -0.061984 -7.072 -2.884 -8.069
1048 7 5 -0.058762 -8.228 -2.193 -7.698
1049 7 26 0.027901 -8.666 0.238 -5.387
1050 7 26 0.027901 -9.118 0.276 -7.039
1051 7 26 0.035266 -10.053 -1.628 -4.855
1052 7 26 0.062571 -8.294 -3.025 -4.402
1053 7 26 0.062279 -6.263 -4.248 -5.065
1054 7 26 0.062269 -5.468 -4.164 -7.413
1055 7 26 0.062279 -6.733 -2.854 -9.101
1056 7 26 0.062571 -8.772 -1.637 -8.458
1057 7 5 -0.039396 -11.235 -1.807 -6.620
1058 7 5 -0.015033 -11.697 -3.284 -6.753
1059 7 5 -0.044868 -11.132 -3.945 -8.017
1060 7 5 -0.058762 -10.114 -4.908 -7.993
1061 7 5 -0.061984 -9.641 -5.482 -9.177
1062 7 5 -0.062248 -10.180 -5.104 -10.403
1063 7 5 -0.061984 -11.195 -4.155 -10.449
1064 7 5 -0.058762 -11.668 -3.582 -9.267
1065 7 26 0.027901 -11.242 -1.351 -7.616
1066 7 26 0.027901 -12.027 -1.308 -6.053
1067 7 26 0.035266 -12.769 -3.225 -6.983
1068 7 26 0.062571 -9.654 -5.210 -7.056
1069 7 26 0.062279 -8.845 -6.219 -9.138
1070 7 26 0.062269 -9.809 -5.551 -11.322
1071 7 26 0.062279 -11.624 -3.862 -11.404
1072 7 26 0.062571 -12.472 -2.850 -9.323
1073 7 5 -0.039396 -11.597 -4.177 -5.491
1074 7 5 -0.015033 -12.579 -3.949 -4.303
1075 7 5 -0.044868 -14.020 -3.800 -4.774
1076 7 5 -0.058762 -14.773 -4.958 -5.035
1077 7 5 -0.061984 -16.092 -4.875 -5.488
1078 7 5 -0.062248 -16.678 -3.630 -5.695
1079 7 5 -0.061984 -15.947 -2.471 -5.452
1080 7 5 -0.058762 -14.627 -2.555 -4.998
1081 7 26 0.027901 -10.569 -4.193 -5.115
1082 7 26 0.027901 -11.789 -5.210 -5.819
1083 7 26 0.035266 -12.561 -4.907 -3.775
1084 7 26 0.062571 -14.334 -5.942 -4.881
1085 7 26 0.062279 -16.658 -5.782 -5.675
1086 7 26 0.062269 -17.705 -3.563 -6.044
1087 7 26 0.062279 -16.403 -1.497 -5.613
1088 7 26 0.062571 -14.090 -1.627 -4.824
1089 7 5 -0.039396 -12.068 -2.917 -3.265
1090 7 5 -0.015033 -12.439 -3.143 -1.767
1091 7 5 -0.044868 -13.916 -3.411 -1.505
1092 7 5 -0.058762 -14.431 -4.682 -1.219
1093 7 5 -0.061984 -15.797 -4.870 -0.987
1094 7 5 -0.062248 -16.672 -3.788 -1.026
1095 7 5 -0.061984 -16.182 -2.517 -1.302
1096 7 5 -0.058762 -14.817 -2.332 -1.538
1097 7 26 0.027901 -10.978 -2.855 -3.310
1098 7 26 0.027901 -12.406 -1.918 -3.550
1099 7 26 0.035266 -12.281 -2.149 -1.315
1100 7 26 0.062571 -13.791 -5.556 -1.170
1101 7 26 0.062279 -16.177 -5.867 -0.775
1102 7 26 0.062269 -17.732 -3.938 -0.847
1103 7 26 0.062279 -16.860 -1.668 -1.335
1104 7 26 0.062571 -14.458 -1.331 -1.759
1105 7 5 -0.039396 -11.444 -4.005 -0.915
1106 7 5 -0.015033 -11.033 -5.413 -1.429
1107 7 5 -0.044868 -11.086 -6.529 -0.395
1108 7 5 -0.058762 -11.412 -7.832 -0.814
1109 7 5 -0.061984 -11.461 -8.891 0.095
1110 7 5 -0.062248 -11.190 -8.664 1.441
1111 7 5 -0.061984 -10.878 -7.380 1.877
1112 7 5 -0.058762 -10.827 -6.321 0.966
1113 7 26 0.027901 -11.889 -4.078 0.085
1114 7 26 0.027901 -10.539 -3.405 -0.778
1115 7 26 0.035266 -11.828 -5.693 -2.123
1116 7 26 0.062571 -11.628 -8.033 -1.862
1117 7 26 0.062279 -11.707 -9.891 -0.248
1118 7 26 0.062269 -11.224 -9.488 2.150
1119 7 26 0.062279 -10.670 -7.198 2.929
1120 7 26 0.062571 -10.570 -5.333 1.340
1121 7 5 -0.039396 -9.741 -5.415 -2.297
1122 7 5 -0.015033 -8.316 -5.567 -1.693
1123 7 5 -0.044868 -7.965 -4.481 -0.676
1124 7 5 -0.058762 -7.781 -4.739 0.689
1125 7 5 -0.061984 -7.455 -3.712 1.580
1126 7 5 -0.062248 -7.298 -2.408 1.122
1127 7 5 -0.061984 -7.463 -2.131 -0.231
1128 7 5 -0.058762 -7.788 -3.158 -1.119
1129 7 26 0.027901 -9.873 -6.196 -3.056
1130 7 26 0.027901 -9.736 -4.493 -2.885
1131 7 26 0.035266 -7.637 -5.353 -2.533
1132 7 26 0.062571 -7.887 -5.743 1.091
1133 7 26 0.062279 -7.319 -3.935 2.637
1134 7 26 0.062269 -7.042 -1.613 1.815
1135 7 26 0.062279 -7.335 -1.115 -0.598
1136 7 26 0.062571 -7.903 -2.913 -2.171
1137 7 5 -0.039396 -7.919 -7.006 -1.256
1138 7 5 -0.015043 -8.077 -8.124 -2.325
1139 7 5 -0.044868 -7.223 -7.845 -3.553
1140 7 5 -0.058762 -5.821 -7.819 -3.484
1141 7 5 -0.061984 -5.055 -7.570 -4.624
1142 7 5 -0.062248 -5.679 -7.341 -5.848
1143 7 5 -0.061984 -7.069 -7.350 -5.932
1144 7 5 -0.058762 -7.836 -7.596 -4.792
1145 7 26 0.027901 -6.873 -6.990 -0.920
1146 7 26 0.027901 -8.496 -7.296 -0.374
1147 7 26 0.035265 -9.129 -8.156 -2.628
1148 7 26 0.062571 -5.313 -7.996 -2.538
1149 7 26 0.062279 -3.970 -7.558 -4.557
1150 7 26 0.062269 -5.080 -7.152 -6.736
1151 7 26 0.062279 -7.558 -7.163 -6.883
1152 7 26 0.062571 -8.920 -7.605 -4.883
1153 7 5 -0.039683 -7.773 -9.504 -1.673
1154 7 5 -0.018457 -8.366 -10.726 -2.419
1155 7 5 -0.045165 -8.450 -11.928 -1.482
1156 7 5 -0.058773 -9.697 -12.501 -1.190
1157 7 5 -0.061984 -9.791 -13.606 -0.342
1158 7 5 -0.062248 -8.641 -14.153 0.224
1159 7 5 -0.061984 -7.397 -13.593 -0.057
1160 7 5 -0.058773 -7.299 -12.491 -0.906
1161 7 26 0.02789 -8.209 -9.495 -0.664
1162 7 26 0.02789 -6.694 -9.636 -1.527
1163 7 26 0.034958 -9.388 -10.469 -2.727
1164 7 26 0.062571 -10.606 -12.096 -1.627
1165 7 26 0.062279 -10.764 -14.044 -0.127
1166 7 26 0.062269 -8.712 -15.017 0.879
1167 7 26 0.062279 -6.498 -14.019 0.384
1168 7 26 0.062571 -6.317 -12.074 -1.116
1169 7 5 -0.058394 -7.594 -11.120 -3.682
1170 7 26 0.023656 -7.688 -10.363 -4.462
1171 7 26 0.023656 -7.985 -12.052 -4.106
1172 7 26 0.023656 -6.530 -11.270 -3.474
1173 7 5 -0.064799 -9.664 3.118 -9.797
1174 7 26 0.023057 -8.930 2.320 -9.944
1175 7 26 0.023057 -9.139 4.079 -9.844
1176 7 26 0.023057 -10.376 3.094 -10.627
1177 8 5 -0.049212 9.541 -5.450 5.687
1178 8 5 -0.015877 8.404 -5.272 6.714
1179 8 5 -0.044901 8.500 -3.950 7.470
1180 8 5 -0.058763 7.433 -3.039 7.406
1181 8 5 -0.061984 7.481 -1.834 8.109
1182 8 5 -0.062248 8.599 -1.520 8.878
1183 8 5 -0.061984 9.668 -2.412 8.946
1184 8 5 -0.058763 9.619 -3.622 8.250
1185 8 26 0.026994 9.471 -6.442 5.223
1186 8 26 0.026994 10.521 -5.404 6.178
1187 8 26 0.035233 7.462 -5.242 6.158
1188 8 26 0.062571 6.549 -3.266 6.813
1189 8 26 0.062279 6.643 -1.143 8.060
1190 8 26 0.062269 8.637 -0.584 9.427
1191 8 26 0.062279 10.542 -2.164 9.544
1192 8 26 0.062571 10.464 -4.303 8.323
1193 8 5 -0.039428 8.357 -6.446 7.727
1194 8 5 -0.015033 7.878 -7.830 7.189
1195 8 5 -0.044868 7.913 -8.968 8.215
1196 8 5 -0.058762 8.301 -8.780 9.550
1197 8 5 -0.061984 8.370 -9.855 10.442
1198 8 5 -0.062248 8.041 -11.139 10.021
1199 8 5 -0.061984 7.655 -11.351 8.703
1200 8 5 -0.058762 7.607 -10.280 7.807
1201 8 26 0.027901 7.740 -6.149 8.581
1202 8 26 0.027901 9.368 -6.574 8.140
1203 8 26 0.035266 8.652 -8.121 6.463
1204 8 26 0.062571 8.569 -7.799 9.931
1205 8 26 0.062279 8.686 -9.686 11.468
1206 8 26 0.062269 8.089 -11.973 10.718
1207 8 26 0.062279 7.404 -12.354 8.366
1208 8 26 0.062571 7.334 -10.490 6.775
1209 8 5 -0.039396 6.555 -7.790 6.373
1210 8 5 -0.015033 5.175 -7.682 7.100
1211 8 5 -0.044868 4.111 -7.598 6.012
1212 8 5 -0.058762 3.226 -8.670 5.823
1213 8 5 -0.061984 2.279 -8.646 4.798
1214 8 5 -0.062248 2.206 -7.550 3.944
1215 8 5 -0.061984 3.079 -6.478 4.114
1216 8 5 -0.058762 4.025 -6.501 5.141
1217 8 26 0.027901 6.516 -8.704 5.760
1218 8 26 0.027901 6.642 -7.002 5.620
1219 8 26 0.035266 5.033 -8.631 7.626
1220 8 26 0.062571 3.268 -9.533 6.477
1221 8 26 0.062279 1.596 -9.483 4.672
1222 8 26 0.062269 1.466 -7.530 3.148
1223 8 26 0.062279 3.018 -5.616 3.455
1224 8 26 0.062571 4.686 -5.645 5.263
1225 8 5 -0.039396 5.117 -6.571 8.166
1226 8 5 -0.015033 3.788 -6.196 8.878
1227 8 5 -0.044868 3.000 -5.141 8.090
1228 8 5 -0.058762 1.825 -5.429 7.382
1229 8 5 -0.061984 1.143 -4.426 6.686
1230 8 5 -0.062248 1.624 -3.119 6.690
1231 8 5 -0.061984 2.784 -2.812 7.392
1232 8 5 -0.058762 3.465 -3.813 8.087
1233 8 26 0.027901 5.552 -5.659 7.741
1234 8 26 0.027901 5.794 -6.883 8.968
1235 8 26 0.035266 4.094 -5.635 9.772
1236 8 26 0.062571 1.434 -6.441 7.338
1237 8 26 0.062279 0.241 -4.671 6.135
1238 8 26 0.062269 1.093 -2.342 6.146
1239 8 26 0.062279 3.159 -1.791 7.404
1240 8 26 0.062571 4.364 -3.549 8.642
1241 8 5 -0.039396 2.911 -7.359 9.404
1242 8 5 -0.015033 3.375 -8.177 10.646
1243 8 5 -0.044868 3.853 -7.276 11.777
1244 8 5 -0.058762 2.901 -6.708 12.642
1245 8 5 -0.061984 3.286 -5.859 13.682
1246 8 5 -0.062248 4.630 -5.557 13.872
1247 8 5 -0.061984 5.588 -6.102 13.022
1248 8 5 -0.058762 5.203 -6.953 11.981
1249 8 26 0.027901 2.658 -8.045 8.590
1250 8 26 0.027901 1.947 -6.918 9.703
1251 8 26 0.035266 2.445 -8.617 11.019
1252 8 26 0.062571 1.843 -6.929 12.511
1253 8 26 0.062279 2.534 -5.438 14.343
1254 8 26 0.062269 4.933 -4.901 14.682
1255 8 26 0.062279 6.640 -5.869 13.167
1256 8 26 0.062571 5.980 -7.353 11.337
1257 8 5 -0.039396 4.269 -9.392 10.289
1258 8 5 -0.015033 4.154 -10.670 11.174
1259 8 5 -0.044868 4.241 -10.422 12.675
1260 8 5 -0.058762 3.130 -10.438 13.528
1261 8 5 -0.061984 3.269 -10.202 14.899
1262 8 5 -0.062248 4.526 -9.955 15.444
1263 8 5 -0.061984 5.644 -9.940 14.619
1264 8 5 -0.058762 5.501 -10.171 13.248
1265 8 26 0.027901 4.074 -9.707 9.261
1266 8 26 0.027901 5.317 -9.081 10.280
1267 8 26 0.035266 5.088 -11.215 10.956
1268 8 26 0.062571 2.131 -10.633 13.154
1269 8 26 0.062279 2.391 -10.213 15.541
1270 8 26 0.062269 4.630 -9.772 16.509
1271 8 26 0.062279 6.627 -9.746 15.038
1272 8 26 0.062571 6.387 -10.146 12.621
1273 8 5 -0.039396 3.091 -11.738 10.738
1274 8 5 -0.015033 1.621 -11.291 10.507
1275 8 5 -0.044868 0.559 -12.175 11.149
1276 8 5 -0.058762 -0.636 -11.585 11.602
1277 8 5 -0.061984 -1.643 -12.356 12.185
1278 8 5 -0.062248 -1.471 -13.730 12.331
1279 8 5 -0.061984 -0.291 -14.329 11.900
1280 8 5 -0.058762 0.716 -13.557 11.315
1281 8 26 0.027901 3.136 -12.533 11.493
1282 8 26 0.027901 3.464 -12.201 9.819
1283 8 26 0.035266 1.527 -10.360 11.070
1284 8 26 0.062571 -0.791 -10.513 11.499
1285 8 26 0.062279 -2.562 -11.886 12.522
1286 8 26 0.062269 -2.257 -14.332 12.781
1287 8 26 0.062279 -0.152 -15.401 12.016
1288 8 26 0.062571 1.620 -14.059 10.981
1289 8 5 -0.039396 1.307 -10.890 9.037
1290 8 5 -0.015033 0.831 -11.912 7.965
1291 8 5 -0.044868 1.816 -13.058 7.735
1292 8 5 -0.058762 1.537 -14.389 8.075
1293 8 5 -0.061984 2.468 -15.405 7.840
1294 8 5 -0.062248 3.695 -15.111 7.252
1295 8 5 -0.061984 3.988 -13.799 6.894
1296 8 5 -0.058762 3.056 -12.786 7.129
1297 8 26 0.027901 0.570 -10.079 9.083
1298 8 26 0.027901 2.195 -10.399 8.630
1299 8 26 0.035266 0.871 -11.353 7.016
1300 8 26 0.062571 0.590 -14.665 8.531
1301 8 26 0.062279 2.231 -16.430 8.116
1302 8 26 0.062269 4.415 -15.902 7.068
1303 8 26 0.062279 4.941 -13.563 6.427
1304 8 26 0.062571 3.310 -11.773 6.831
1305 8 5 -0.039396 -0.656 -12.355 8.069
1306 8 5 -0.015043 -1.717 -11.220 8.111
1307 8 5 -0.044868 -1.659 -10.356 6.860
1308 8 5 -0.058762 -1.962 -10.877 5.591
1309 8 5 -0.061984 -1.912 -10.066 4.456
1310 8 5 -0.062248 -1.556 -8.725 4.572
1311 8 5 -0.061984 -1.240 -8.195 5.820
1312 8 5 -0.058762 -1.287 -9.006 6.956
1313 8 26 0.027901 -0.881 -13.012 7.217
1314 8 26 0.027901 -0.792 -12.981 8.954
1315 8 26 0.035265 -1.505 -10.591 8.982
1316 8 26 0.062571 -2.243 -11.922 5.478
1317 8 26 0.062279 -2.154 -10.482 3.481
1318 8 26 0.062269 -1.522 -8.093 3.688
1319 8 26 0.062279 -0.954 -7.151 5.912
1320 8 26 0.062571 -1.043 -8.568 7.921
1321 8 5 -0.039683 -3.123 -11.840 8.358
1322 8 5 -0.018457 -4.180 -10.862 8.929
1323 8 5 -0.045165 -5.318 -11.638 9.586
1324 8 5 -0.058773 -5.580 -11.471 10.954
1325 8 5 -0.061984 -6.623 -12.166 11.569
1326 8 5 -0.062248 -7.418 -13.036 10.825
1327 8 5 -0.061984 -7.169 -13.211 9.466
1328 8 5 -0.058773 -6.129 -12.516 8.848
1329 8 26 0.02789 -3.001 -12.652 9.089
1330 8 26 0.02789 -3.502 -12.319 7.446
1331 8 26 0.034958 -3.693 -10.257 9.707
1332 8 26 0.062571 -4.978 -10.791 11.552
1333 8 26 0.062279 -6.818 -12.024 12.630
1334 8 26 0.062269 -8.234 -13.573 11.301
1335 8 26 0.062279 -7.788 -13.889 8.883
1336 8 26 0.062571 -5.956 -12.664 7.785
1337 8 5 -0.058394 -4.757 -9.893 7.892
1338 8 26 0.023656 -4.008 -9.178 7.551
1339 8 26 0.023656 -5.577 -9.304 8.320
1340 8 26 0.023656 -5.150 -10.424 7.019
1341 8 5 -0.064799 9.502 -4.414 4.569
1342 8 26 0.023057 8.552 -4.458 4.028
1343 8 26 0.023057 10.313 -4.604 3.858
1344 8 26 0.023057 9.637 -3.398 4.953
1345 9 5 -0.049212 -4.699 10.635 17.419
1346 9 5 -0.015877 -4.850 9.757 16.160
1347 9 5 -0.044901 -3.662 8.823 15.953
1348 9 5 -0.058763 -3.873 7.435 15.906
1349 9 5 -0.061984 -2.810 6.557 15.691
1350 9 5 -0.062248 -1.519 7.054 15.527
1351 9 5 -0.061984 -1.292 8.429 15.577
1352 9 5 -0.058763 -2.356 9.309 15.784
1353 9 26 0.026994 -5.539 11.338 17.485
1354 9 26 0.026994 -3.788 11.244 17.362
1355 9 26 0.035233 -5.724 9.116 16.311
1356 9 26 0.062571 -4.875 7.026 16.029
1357 9 26 0.062279 -2.990 5.486 15.646
1358 9 26 0.062269 -0.690 6.373 15.357
1359 9 26 0.062279 -0.283 8.816 15.452
1360 9 26 0.062571 -2.154 10.378 15.814
1361 9 5 -0.039428 -5.064 10.613 14.884
1362 9 5 -0.015033 -6.435 11.343 14.741
1363 9 5 -0.044868 -6.569 12.227 13.495
1364 9 5 -0.058762 -5.558 12.341 12.529
1365 9 5 -0.061984 -5.697 13.198 11.433
1366 9 5 -0.062248 -6.855 13.952 11.274
1367 9 5 -0.061984 -7.870 13.858 12.219
1368 9 5 -0.058762 -7.722 13.016 13.324
1369 9 26 0.027901 -4.887 9.985 14.006
1370 9 26 0.027901 -4.270 11.374 14.853
1371 9 26 0.035266 -6.443 12.069 15.567
1372 9 26 0.062571 -4.633 11.777 12.605
1373 9 26 0.062279 -4.895 13.279 10.706
1374 9 26 0.062269 -6.965 14.613 10.418
1375 9 26 0.062279 -8.775 14.449 12.104
1376 9 26 0.062571 -8.522 12.994 14.061
1377 9 5 -0.039396 -7.681 10.445 14.982
1378 9 5 -0.015033 -8.178 9.460 13.875
1379 9 5 -0.044868 -9.359 8.697 14.464
1380 9 5 -0.058762 -10.651 8.925 13.965
1381 9 5 -0.061984 -11.758 8.285 14.523
1382 9 5 -0.062248 -11.591 7.409 15.591
1383 9 5 -0.061984 -10.317 7.172 16.101
1384 9 5 -0.058762 -9.208 7.811 15.542
1385 9 26 0.027901 -8.528 11.108 15.215
1386 9 26 0.027901 -7.536 9.906 15.923
1387 9 26 0.035266 -8.562 10.083 13.062
1388 9 26 0.062571 -10.801 9.605 13.134
1389 9 26 0.062279 -12.751 8.469 14.118
1390 9 26 0.062269 -12.454 6.908 16.022
1391 9 26 0.062279 -10.182 6.481 16.928
1392 9 26 0.062571 -8.221 7.599 15.948
1393 9 5 -0.039396 -7.062 8.583 13.273
1394 9 5 -0.015033 -7.379 7.430 12.283
1395 9 5 -0.044868 -7.675 6.115 13.017
1396 9 5 -0.058762 -8.959 5.561 13.115
1397 9 5 -0.061984 -9.170 4.356 13.792
1398 9 5 -0.062248 -8.101 3.685 14.379
1399 9 5 -0.061984 -6.819 4.215 14.287
1400 9 5 -0.058762 -6.607 5.418 13.611
1401 9 26 0.027901 -6.457 8.179 14.094
1402 9 26 0.027901 -6.405 9.264 12.721
1403 9 26 0.035266 -6.422 7.208 11.791
1404 9 26 0.062571 -9.820 6.070 12.690
1405 9 26 0.062279 -10.174 3.949 13.866
1406 9 26 0.062269 -8.269 2.750 14.906
1407 9 26 0.062279 -5.980 3.690 14.738
1408 9 26 0.062571 -5.594 5.809 13.539
1409 9 5 -0.039396 -8.371 7.733 11.133
1410 9 5 -0.015033 -7.933 8.657 9.957
1411 9 5 -0.044868 -6.552 8.291 9.428
1412 9 5 -0.058762 -6.435 7.238 8.503
1413 9 5 -0.061984 -5.190 6.852 8.003
1414 9 5 -0.062248 -4.037 7.506 8.425
1415 9 5 -0.061984 -4.130 8.544 9.347
1416 9 5 -0.058762 -5.376 8.932 9.847
1417 9 26 0.027901 -9.326 8.084 11.535
1418 9 26 0.027901 -8.608 6.768 10.657
1419 9 26 0.035266 -8.618 8.379 9.151
1420 9 26 0.062571 -7.324 6.711 8.159
1421 9 26 0.062279 -5.124 6.041 7.282
1422 9 26 0.062269 -3.068 7.209 8.035
1423 9 26 0.062279 -3.231 9.058 9.679
1424 9 26 0.062571 -5.405 9.744 10.568
1425 9 5 -0.039396 -8.213 10.160 10.212
1426 9 5 -0.015033 -8.594 11.050 8.990
1427 9 5 -0.044868 -7.666 10.922 7.788
1428 9 5 -0.058762 -7.997 10.206 6.629
1429 9 5 -0.061984 -7.105 10.121 5.556
1430 9 5 -0.062248 -5.869 10.759 5.617
1431 9 5 -0.061984 -5.522 11.480 6.754
1432 9 5 -0.058762 -6.413 11.559 7.827
1433 9 26 0.027901 -9.020 10.269 10.940
1434 9 26 0.027901 -7.347 10.612 10.702
1435 9 26 0.035266 -8.396 12.074 9.350
1436 9 26 0.062571 -8.949 9.697 6.529
1437 9 26 0.062279 -7.379 9.554 4.669
1438 9 26 0.062269 -5.179 10.690 4.782
1439 9 26 0.062279 -4.558 11.979 6.809
1440 9 26 0.062571 -6.117 12.121 8.708
1441 9 5 -0.039396 -10.120 11.159 8.644
1442 9 5 -0.015033 -10.946 9.857 8.448
1443 9 5 -0.044868 -11.843 9.829 7.219
1444 9 5 -0.058762 -12.073 8.601 6.571
1445 9 5 -0.061984 -12.899 8.523 5.448
1446 9 5 -0.062248 -13.503 9.673 4.947
1447 9 5 -0.061984 -13.277 10.898 5.567
1448 9 5 -0.058762 -12.452 10.975 6.693
1449 9 26 0.027901 -10.181 11.789 7.748
1450 9 26 0.027901 -10.585 11.752 9.438
1451 9 26 0.035266 -10.200 9.093 8.217
1452 9 26 0.062571 -11.611 7.689 6.944
1453 9 26 0.062279 -13.072 7.566 4.965
1454 9 26 0.062269 -14.149 9.613 4.075
1455 9 26 0.062279 -13.744 11.799 5.176
1456 9 26 0.062571 -12.306 11.947 7.157
1457 9 5 -0.039396 -11.635 9.347 9.747
1458 9 5 -0.015033 -13.054 9.805 10.187
1459 9 5 -0.044868 -13.174 11.316 10.385
1460 9 5 -0.058762 -13.957 12.138 9.564
1461 9 5 -0.061984 -14.040 13.515 9.789
1462 9 5 -0.062248 -13.346 14.097 10.845
1463 9 5 -0.061984 -12.573 13.299 11.682
1464 9 5 -0.058762 -12.493 11.923 11.456
1465 9 26 0.027901 -11.633 8.251 9.694
1466 9 26 0.027901 -10.963 9.558 10.584
1467 9 26 0.035266 -13.167 9.408 11.208
1468 9 26 0.062571 -14.520 11.726 8.730
1469 9 26 0.062279 -14.652 14.135 9.136
1470 9 26 0.062269 -13.414 15.166 11.020
1471 9 26 0.062279 -12.035 13.745 12.514
1472 9 26 0.062571 -11.888 11.324 12.130
1473 9 5 -0.039396 -14.240 9.164 9.411
1474 9 5 -0.015043 -14.269 7.611 9.344
1475 9 5 -0.044868 -14.341 6.996 10.734
1476 9 5 -0.058762 -15.454 7.190 11.568
1477 9 5 -0.061984 -15.505 6.609 12.837
1478 9 5 -0.062248 -14.444 5.830 13.290
1479 9 5 -0.061984 -13.327 5.638 12.482
1480 9 5 -0.058762 -13.273 6.221 11.214
1481 9 26 0.027901 -15.179 9.512 9.865
1482 9 26 0.027901 -14.261 9.549 8.388
1483 9 26 0.035265 -13.346 7.278 8.860
1484 9 26 0.062571 -16.295 7.794 11.233
1485 9 26 0.062279 -16.376 6.763 13.469
1486 9 26 0.062269 -14.488 5.374 14.277
1487 9 26 0.062279 -12.494 5.038 12.837
1488 9 26 0.062571 -12.393 6.052 10.598
1489 9 5 -0.039683 -15.433 7.159 8.417
1490 9 5 -0.018457 -15.292 5.728 7.840
1491 9 5 -0.045165 -16.171 5.568 6.602
1492 9 5 -0.058773 -15.586 5.271 5.362
1493 9 5 -0.061984 -16.375 5.113 4.222
1494 9 5 -0.062248 -17.760 5.247 4.306
1495 9 5 -0.061984 -18.354 5.542 5.531
1496 9 5 -0.058773 -17.568 5.698 6.673
1497 9 26 0.02789 -15.465 7.852 7.565
1498 9 26 0.02789 -16.400 7.270 8.924
1499 9 26 0.034958 -14.248 5.591 7.530
1500 9 26 0.062571 -14.508 5.154 5.275
1501 9 26 0.062279 -15.909 4.879 3.267
1502 9 26 0.062269 -18.377 5.118 3.420
1503 9 26 0.062279 -19.435 5.647 5.598
1504 9 26 0.062571 -18.054 5.922 7.619
1505 9 5 -0.058394 -15.620 4.616 8.843
1506 9 26 0.023656 -14.880 4.567 9.643
1507 9 26 0.023656 -15.615 3.635 8.354
1508 9 26 0.023656 -16.607 4.759 9.294
1509 9 5 -0.064799 -4.671 9.826 18.710
1510 9 26 0.023057 -5.586 9.237 18.822
1511 9 26 0.023057 -4.590 10.501 19.570
1512 9 26 0.023057 -3.813 9.148 18.746
1513 10 5 -0.049212 3.720 14.855 -5.774
1514 10 5 -0.015877 4.374 14.513 -7.128
1515 10 5 -0.044901 5.344 15.593 -7.598
1516 10 5 -0.058763 6.689 15.260 -7.832
1517 10 5 -0.061984 7.593 16.220 -8.288
1518 10 5 -0.062248 7.167 17.528 -8.510
1519 10 5 -0.061984 5.838 17.875 -8.276
1520 10 5 -0.058763 4.929 16.914 -7.827
1521 10 26 0.026994 2.980 14.087 -5.514
1522 10 26 0.026994 3.175 15.805 -5.833
1523 10 26 0.035233 4.969 13.605 -6.985
1524 10 26 0.062571 7.041 14.243 -7.667
1525 10 26 0.062279 8.629 15.946 -8.476
1526 10 26 0.062269 7.869 18.276 -8.866
1527 10 26 0.062279 5.508 18.897 -8.446
1528 10 26 0.062571 3.896 17.208 -7.657
1529 10 5 -0.039428 3.313 14.255 -8.230
1530 10 5 -0.015033 2.476 12.944 -8.116
1531 10 5 -0.044868 1.398 12.771 -9.193
1532 10 5 -0.058762 1.202 13.694 -10.231
1533 10 5 -0.061984 0.174 13.527 -11.163
1534 10 5 -0.062248 -0.675 12.428 -11.084
1535 10 5 -0.061984 -0.502 11.500 -10.064
1536 10 5 -0.058762 0.513 11.679 -9.120
1537 10 26 0.027901 3.804 14.295 -9.207
1538 10 26 0.027901 2.615 15.105 -8.228
1539 10 26 0.035266 1.891 13.074 -7.193
1540 10 26 0.062571 1.835 14.570 -10.339
1541 10 26 0.062279 0.034 14.263 -11.951
1542 10 26 0.062269 -1.470 12.296 -11.814
1543 10 26 0.062279 -1.166 10.643 -9.992
1544 10 26 0.062571 0.596 10.952 -8.316
1545 10 5 -0.039396 3.312 11.654 -7.884
1546 10 5 -0.015033 4.071 10.974 -9.069
1547 10 5 -0.044868 4.833 9.792 -8.482
1548 10 5 -0.058762 4.439 8.484 -8.802
1549 10 5 -0.061984 5.081 7.382 -8.235
1550 10 5 -0.062248 6.125 7.572 -7.336
1551 10 5 -0.061984 6.529 8.863 -7.003
1552 10 5 -0.058762 5.888 9.966 -7.573
1553 10 26 0.027901 2.636 10.892 -7.466
1554 10 26 0.027901 4.003 11.839 -7.056
1555 10 26 0.035266 3.301 10.571 -9.734
1556 10 26 0.062571 3.626 8.315 -9.500
1557 10 26 0.062279 4.765 6.375 -8.501
1558 10 26 0.062269 6.627 6.714 -6.897
1559 10 26 0.062279 7.351 9.015 -6.309
1560 10 26 0.062571 6.231 10.964 -7.309
1561 10 5 -0.039396 4.916 11.950 -9.911
1562 10 5 -0.015033 5.872 11.446 -11.026
1563 10 5 -0.044868 7.263 11.107 -10.472
1564 10 5 -0.058762 7.734 9.796 -10.325
1565 10 5 -0.061984 9.014 9.546 -9.819
1566 10 5 -0.062248 9.843 10.604 -9.456
1567 10 5 -0.061984 9.397 11.913 -9.601
1568 10 5 -0.058762 8.119 12.163 -10.106
1569 10 26 0.027901 5.487 12.592 -9.229
1570 10 26 0.027901 4.204 12.609 -10.419
1571 10 26 0.035266 6.079 12.330 -11.643
1572 10 26 0.062571 7.106 8.946 -10.576
1573 10 26 0.062279 9.357 8.523 -9.703
1574 10 26 0.062269 10.836 10.406 -9.063
1575 10 26 0.062279 10.043 12.742 -9.326
1576 10 26 0.062571 7.793 13.195 -10.224
1577 10 5 -0.039396 5.321 10.380 -12.006
1578 10 5 -0.015033 4.255 10.785 -13.068
1579 10 5 -0.044868 4.627 12.074 -13.789
1580 10 5 -0.058762 5.525 12.014 -14.869
1581 10 5 -0.061984 5.913 13.170 -15.550
1582 10 5 -0.062248 5.417 14.409 -15.157
1583 10 5 -0.061984 4.534 14.491 -14.084
1584 10 5 -0.058762 4.145 13.334 -13.403
1585 10 26 0.027901 4.973 9.500 -11.457
1586 10 26 0.027901 6.179 10.018 -12.594
1587 10 26 0.035266 4.352 10.006 -13.830
1588 10 26 0.062571 5.927 11.056 -15.193
1589 10 26 0.062279 6.601 13.100 -16.388
1590 10 26 0.062269 5.714 15.309 -15.687
1591 10 26 0.062279 4.144 15.458 -13.774
1592 10 26 0.062571 3.458 13.442 -12.568
1593 10 5 -0.039396 2.796 10.659 -12.560
1594 10 5 -0.015033 1.698 10.243 -13.587
1595 10 5 -0.044868 1.698 11.041 -14.885
1596 10 5 -0.058762 2.195 10.545 -16.097
1597 10 5 -0.061984 2.170 11.323 -17.259
1598 10 5 -0.062248 1.638 12.609 -17.232
1599 10 5 -0.061984 1.133 13.120 -16.041
1600 10 5 -0.058762 1.164 12.342 -14.881
1601 10 26 0.027901 2.748 9.935 -11.743
1602 10 26 0.027901 2.489 11.602 -12.101
1603 10 26 0.035266 0.761 10.561 -13.098
1604 10 26 0.062571 2.613 9.547 -16.173
1605 10 26 0.062279 2.568 10.920 -18.187
1606 10 26 0.062269 1.621 13.210 -18.135
1607 10 26 0.062279 0.718 14.124 -16.013
1608 10 26 0.062571 0.771 12.765 -13.961
1609 10 5 -0.039396 1.429 8.707 -13.750
1610 10 5 -0.015033 2.622 7.758 -14.052
1611 10 5 -0.044868 2.392 6.752 -15.171
1612 10 5 -0.058762 3.482 6.358 -15.970
1613 10 5 -0.061984 3.322 5.429 -16.999
1614 10 5 -0.062248 2.068 4.881 -17.253
1615 10 5 -0.061984 0.976 5.267 -16.482
1616 10 5 -0.058762 1.137 6.196 -15.451
1617 10 26 0.027901 0.661 8.617 -14.529
1618 10 26 0.027901 0.939 8.370 -12.831
1619 10 26 0.035266 3.390 8.411 -14.474
1620 10 26 0.062571 4.472 6.774 -15.789
1621 10 26 0.062279 4.176 5.130 -17.600
1622 10 26 0.062269 1.943 4.154 -18.051
1623 10 26 0.062279 -0.006 4.845 -16.681
1624 10 26 0.062571 0.264 6.467 -14.862
1625 10 5 -0.039396 3.284 7.152 -12.781
1626 10 5 -0.015033 2.803 5.823 -12.130
1627 10 5 -0.044868 1.339 5.852 -11.694
1628 10 5 -0.058762 0.344 5.069 -12.295
1629 10 5 -0.061984 -0.983 5.126 -11.856
1630 10 5 -0.062248 -1.339 5.961 -10.802
1631 10 5 -0.061984 -0.366 6.738 -10.182
1632 10 5 -0.058762 0.958 6.679 -10.621
1633 10 26 0.027901 4.354 7.055 -12.999
1634 10 26 0.027901 3.255 7.914 -11.997
1635 10 26 0.035266 3.349 5.773 -11.175
1636 10 26 0.062571 0.577 4.398 -13.117
1637 10 26 0.062279 -1.739 4.511 -12.340
1638 10 26 0.062269 -2.369 6.002 -10.462
1639 10 26 0.062279 -0.635 7.387 -9.353
1640 10 26 0.062571 1.698 7.290 -10.112
1641 10 5 -0.039396 3.228 4.520 -12.865
1642 10 5 -0.015043 4.744 4.353 -13.163
1643 10 5 -0.044868 5.566 4.358 -11.883
1644 10 5 -0.058762 5.431 3.348 -10.917
1645 10 5 -0.061984 6.201 3.365 -9.753
1646 10 5 -0.062248 7.115 4.394 -9.536
1647 10 5 -0.061984 7.253 5.411 -10.477
1648 10 5 -0.058762 6.481 5.396 -11.640
1649 10 26 0.027901 2.892 3.661 -12.268
1650 10 26 0.027901 2.685 4.437 -13.810
1651 10 26 0.035265 5.061 5.196 -13.787
1652 10 26 0.062571 4.724 2.534 -11.066
1653 10 26 0.062279 6.089 2.573 -9.016
1654 10 26 0.062269 7.718 4.403 -8.631
1655 10 26 0.062279 7.959 6.218 -10.306
1656 10 26 0.062571 6.611 6.198 -12.364
1657 10 5 -0.039683 4.961 3.073 -14.021
1658 10 5 -0.018457 6.288 3.038 -14.820
1659 10 5 -0.045165 6.188 2.037 -15.968
1660 10 5 -0.058773 6.323 2.477 -17.293
1661 10 5 -0.061984 6.243 1.575 -18.355
1662 10 5 -0.062248 6.027 0.220 -18.106
1663 10 5 -0.061984 5.890 -0.230 -16.796
1664 10 5 -0.058773 5.973 0.669 -15.732
1665 10 26 0.02789 4.140 3.022 -14.750
1666 10 26 0.02789 4.865 2.171 -13.404
1667 10 26 0.034958 6.447 4.033 -15.255
1668 10 26 0.062571 6.500 3.528 -17.510
1669 10 26 0.062279 6.353 1.929 -19.378
1670 10 26 0.062269 5.970 -0.484 -18.932
1671 10 26 0.062279 5.722 -1.287 -16.600
1672 10 26 0.062571 5.869 0.294 -14.717
1673 10 5 -0.058394 7.520 2.711 -13.968
1674 10 26 0.023656 7.747 3.515 -13.267
1675 10 26 0.023656 8.409 2.586 -14.597
1676 10 26 0.023656 7.383 1.786 -13.399
1677 10 5 -0.064799 4.724 14.933 -4.630
1678 10 26 0.023057 5.259 13.985 -4.513
1679 10 26 0.023057 4.203 15.151 -3.691
1680 10 26 0.023057 5.458 15.729 -4.788

Bonds

1 112 1 2
2 127 1 9
3 127 1 10
4 112 1 165
5 112 2 3
6 127 2 11
7 112 2 17
8 112 3 4
9 112 3 8
10 112 4 5
11 127 4 12
12 112 5 6
13 127 5 13
14 112 6 7
15 127 6 14
16 112 7 8
17 127 7 15
18 127 8 16
19 112 17 18
20 127 17 25
21 127 17 26
22 112 18 19
23 127 18 27
24 112 18 33
25 112 19 20
26 112 19 24
27 112 20 21
28 127 20 28
29 112 21 22
30 127 21 29
31 112 22 23
32 127 22 30
33 112 23 24
34 127 23 31
35 127 24 32
36 112 33 34
37 127 33 41
38 127 33 42
39 112 34 35
40 127 34 43
41 112 34 49
42 112 35 36
43 112 35 40
44 112 36 37
45 127 36 44
46 112 37 38
47 127 37 45
48 112 38 39
49 127 38 46
50 112 39 40
51 127 39 47
52 127 40 48
53 112 49 50
54 127 49 57
55 127 49 58
56 112 50 51
57 127 50 59
58 112 50 65
59 112 51 52
60 112 51 56
61 112 52 53
62 127 52 60
63 112 53 54
64 127 53 61
65 112 54 55
66 127 54 62
67 112 55 56
68 127 55 63
69 127 56 64
70 112 65 66
71 127 65 73
72 127 65 74
73 112 66 67
74 127 66 75
75 112 66 81
76 112 67 68
77 112 67 72
78 112 68 69
79 127 68 76
80 112 69 70
81 127 69 77
82 112 70 71
83 127 70 78
84 112 71 72
85 127 71 79
86 127 72 80
87 112 81 82
88 127 81 89
89 127 81 90
90 112 82 83
91 127 82 91
92 112 82 97
93 112 83 84
94 112 83 88
95 112 84 85
96 127 84 92
97 112 85 86
98 127 85 93
99 112 86 87
100 127 86 94
101 112 87 88
102 127 87 95
103 127 88 96
104 112 97 98
105 127 97 105
106 127 97 106
107 112 98 99
108 127 98 107
109 112 98 113
110 112 99 100
111 112 99 104
112 112 100 101
113 127 100 108
114 112 101 102
115 127 101 109
116 112 102 103
117 127 102 110
118 112 103 104
119 127 103 111
120 127 104 112
121 112 113 114
122 127 113 121
123 127 113 122
124 112 114 115
125 127 114 123
126 112 114 129
127 112 115 116
128 112 115 120
129 112 116 117
130 127 116 124
131 112 117 118
132 127 117 125
133 112 118 119
134 127 118 126
135 112 119 120
136 127 119 127
137 127 120 128
138 112 129 130
139 127 129 137
140 127 129 138
141 112 130 131
142 127 130 139
143 112 130 145
144 112 131 132
145 112 131 136
146 112 132 133
147 127 132 140
148 112 133 134
149 127 133 141
150 112 134 135
151 127 134 142
152 112 135 136
153 127 135 143
154 127 136 144
155 112 145 146
156 127 145 153
157 127 145 154
158 112 146 147
159 127 146 155
160 112 146 161
161 112 147 148
162 112 147 152
163 112 148 149
164 127 148 156
165 112 149 150
166 127 149 157
167 112 150 151
168 127 150 158
169 112 151 152
170 127 151 159
171 127 152 160
172 127 161 162
173 127 161 163
174 127 161 164
175 127 165 166
176 127 165 167
177 127 165 168
178 112 169 170
179 127 169 177
180 127 169 178
181 112 169 333
182 112 170 171
183 127 170 179
184 112 170 185
185 112 171 172
186 112 171 176
187 112 172 173
188 127 172 180
189 112 173 174
190 127 173 181
191 112 174 175
192 127 174 182
193 112 175 176
194 127 175 183
195 127 176 184
196 112 185 186
197 127 185 193
198 127 185 194
199 112 186 187
200 127 186 195
201 112 186 201
202 112 187 188
203 112 187 192
204 112 188 189
205 127 188 196
206 112 189 190
207 127 189 197
208 112 190 191
209 127 190 198
210 112 191 192
211 127 191 199
212 127 192 200
213 112 201 202
214 127 201 209
215 127 201 210
216 112 202 203
217 127 202 211
218 112 202 217
219 112 203 204
220 112 203 208
221 112 204 205
222 127 204 212
223 112 205 206
224 127 205 213
225 112 206 207
226 127 206 214
227 112 207 208
228 127 207 215
229 127 208 216
230 112 217 218
231 127 217 225
232 127 217 226
233 112 218 219
234 127 218 227
235 112 218 233
236 112 219 220
237 112 219 224
238 112 220 221
239 127 220 228
240 112 221 222
241 127 221 229
242 112 222 223
243 127 222 230
244 112 223 224
245 127 223 231
246 127 224 232
247 112 233 234
248 127 233 241
249 127 233 242
250 112 234 235
251 127 234 243
252 112 234 249
253 112 235 236
254 112 235 240
255 112 236 237
256 127 236 244
257 112 237 238
258 127 237 245
259 112 238 239
260 127 238 246
261 112 239 240
262 127 239 247
263 127 240 248
264 112 249 250
265 127 249 257
266 127 249 258
267 112 250 251
268 127 250 259
269 112 250 265
270 112 251 252
271 112 251 256
272 112 252 253
273 127 252 260
274 112 253 254
275 127 253 261
276 112 254 255
277 127 254 262
278 112 255 256
279 127 255 263
280 127 256 264
281 112 265 266
282 127 265 273
283 127 265 274
284 112 266 267
285 127 266 275
286 112 266 281
287 112 267 268
288 112 267 272
289 112 268 269
290 127 268 276
291 112 269 270
292 127 269 277
293 112 270 271
294 127 270 278
295 112 271 272
296 127 271 279
297 127 272 280
298 112 281 282
299 127 281 289
300 127 281 290
301 112 282 283
302 127 282 291
303 112 282 297
304 112 283 284
305 112 283 288
306 112 284 285
307 127 284 292
308 112 285 286
309 127 285 293
310 112 286 287
311 127 286 294
312 112 287 288
313 127 287 295
314 127 288 296
315 112 297 298
316 127 297 305
317 127 297 306
318 112 298 299
319 127 298 307
320 112 298 313
321 112 299 300
322 112 299 304
323 112 300 301
324 127 300 308
325 112 301 302
326 127 301 309
327 112 302 303
328 127 302 310
329 112 303 304
330 127 303 311
331 127 304 312
332 112 313 314
333 127 313 321
334 127 313 322
335 112 314 315
336 127 314 323
337 112 314 329
338 112 315 316
339 112 315 320
340 112 316 317
341 127 316 324
342 112 317 318
343 127 317 325
344 112 318 319
345 127 318 326
346 112 319 320
347 127 319 327
348 127 320 328
349 127 329 330
350 127 329 331
351 127 329 332
352 127 333 334
353 127 333 335
354 127 333 336
355 112 337 338
356 127 337 345
357 127 337 346
358 112 337 501
359 112 338 339
360 127 338 347
361 112 338 353
362 112 339 340
363 112 339 344
364 112 340 341
365 127 340 348
366 112 341 342
367 127 341 349
368 112 342 343
369 127 342 350
370 112 343 344
371 127 343 351
372 127 344 352
373 112 353 354
374 127 353 361
375 127 353 362
376 112 354 355
377 127 354 363
378 112 354 369
379 112 355 356
380 112 355 360
381 112 356 357
382 127 356 364
383 112 357 358
384 127 357 365
385 112 358 359
386 127 358 366
387 112 359 360
388 127 359 367
389 127 360 368
390 112 369 370
391 127 369 377
392 127 369 378
393 112 370 371
394 127 370 379
395 112 370 385
396 112 371 372
397 112 371 376
398 112 372 373
399 127 372 380
400 112 373 374
401 127 373 381
402 112 374 375
403 127 374 382
404 112 375 376
405 127 375 383
406 127 376 384
407 112 385 386
408 127 385 393
409 127 385 394
410 112 386 387
411 127 386 395
412 112 386 401
413 112 387 388
414 112 387 392
415 112 388 389
416 127 388 396
417 112 389 390
418 127 389 397
419 112 390 391
420 127 390 398
421 112 391 392
422 127 391 399
423 127 392 400
424 112 401 402
425 127 401 409
426 127 401 410
427 112 402 403
428 127 402 411
429 112 402 417
430 112 403 404
431 112 403 408
432 112 404 405
433 127 404 412
434 112 405 406
435 127 405 413
436 112 406 407
437 127 406 414
438 112 407 408
439 127 407 415
440 127 408 416
441 112 417 418
442 127 417 425
443 127 417 426
444 112 418 419
445 127 418 427
446 112 418 433
447 112 419 420
448 112 419 424
449 112 420 421
450 127 420 428
451 112 421 422
452 127 421 429
453 112 422 423
454 127 422 430
455 112 423 424
456 127 423 431
457 127 424 432
458 112 433 434
459 127 433 441
460 127 433 442
461 112 434 435
462 127 434 443
463 112 434 449
464 112 435 436
465 112 435 440
466 112 436 437
467 127 436 444
468 112 437 438
469 127 437 445
470 112 438 439
471 127 438 446
472 112 439 440
473 127 439 447
474 127 440 448
475 112 449 450
476 127 449 457
477 127 449 458
478 112 450 451
479 127 450 459
480 112 450 465
481 112 451 452
482 112 451 456
483 112 452 453
484 127 452 460
485 112 453 454
486 127 453 461
487 112 454 455
488 127 454 462
489 112 455 456
490 127 455 463
491 127 456 464
492 112 465 466
493 127 465 473
494 127 465 474
495 112 466 467
496 127 466 475
497 112 466 481
498 112 467 468
499 112 467 472
500 112 468 469
501 127 468 476
502 112 469 470
503 127 469 477
504 112 470 471
505 127 470 478
506 112 471 472
507 127 471 479
508 127 472 480
509 112 481 482
510 127 481 489
511 127 481 490
512 112 482 483
513 127 482 491
514 112 482 497
515 112 483 484
516 112 483 488
517 112 484 485
518 127 484 492
519 112 485 486
520 127 485 493
521 112 486 487
522 127 486 494
523 112 487 488
524 127 487 495
525 127 488 496
526 127 497 498
527 127 497 499
528 127 497 500
529 127 501 502
530 127 501 503
531 127 501 504
532 112 505 506
533 127 505 513
534 127 505 514
535 112 505 669
536 112 506 507
537 127 506 515
538 112 506 521
539 112 507 508
540 112 507 512
541 112 508 509
542 127 508 516
543 112 509 510
544 127 509 517
545 112 510 511
546 127 510 518
547 112 511 512
548 127 511 519
549 127 512 520
550 112 521 522
551 127 521 529
552 127 521 530
553 112 522 523
554 127 522 531
555 112 522 537
556 112 523 524
557 112 523 528
558 112 524 525
559 127 524 532
560 112 525 526
561 127 525 533
562 112 526 527
563 127 526 534
564 112 527 528
565 127 527 535
566 127 528 536
567 112 537 538
568 127 537 545
569 127 537 546
570 112 538 539
571 127 538 547
572 112 538 553
573 112 539 540
574 112 539 544
575 112 540 541
576 127 540 548
577 112 541 542
578 127 541 549
579 112 542 543
580 127 542 550
581 112 543 544
582 127 543 551
583 127 544 552
584 112 553 554
585 127 553 561
586 127 553 562
587 112 554 555
588 127 554 563
589 112 554 569
590 112 555 556
591 112 555 560
592 112 556 557
593 127 556 564
594 112 557 558
595 127 557 565
596 112 558 559
597 127 558 566
598 112 559 560
599 127 559 567
600 127 560 568
601 112 569 570
602 127 569 577
603 127 569 578
604 112 570 571
605 127 570 579
606 112 570 585
607 112 571 572
608 112 571 576
609 112 572 573
610 127 572 580
611 112 573 574
612 127 573 581
613 112 574 575
614 127 574 582
615 112 575 576
616 127 575 583
617 127 576 584
618 112 585 586
619 127 585 593
620 127 585 594
621 112 586 587
622 127 586 595
623 112 586 601
624 112 587 588
625 112 587 592
626 112 588 589
627 127 588 596
628 112 589 590
629 127 589 597
630 112 590 591
631 127 590 598
632 112 591 592
633 127 591 599
634 127 592 600
635 112 601 602
636 127 601 609
637 127 601 610
638 112 602 603
639 127 602 611
640 112 602 617
641 112 603 604
642 112 603 608
643 112 604 605
644 127 604 612
645 112 605 606
646 127 605 613
647 112 606 607
648 127 606 614
649 112 607 608
650 127 607 615
651 127 608 616
652 112 617 618
653 127 617 625
654 127 617 626
655 112 618 619
656 127 618 627
657 112 618 633
658 112 619 620
659 112 619 624
660 112 620 621
661 127 620 628
662 112 621 622
663 127 621 629
664 112 622 623
665 127 622 630
666 112 623 624
667 127 623 631
668 127 624 632
669 112 633 634
670 127 633 641
671 127 633 642
672 112 634 635
673 127 634 643
674 112 634 649
675 112 635 636
676 112 635 640
677 112 636 637
678 127 636 644
679 112 637 638
680 127 637 645
681 112 638 639
682 127 638 646
683 112 639 640
684 127 639 647
685 127 640 648
686 112 649 650
687 127 649 657
688 127 649 658
689 112 650 651
690 127 650 659
691 112 650 665
692 112 651 652
693 112 651 656
694 112 652 653
695 127 652 660
696 112 653 654
697 127 653 661
698 112 654 655
699 127 654 662
700 112 655 656
701 127 655 663
702 127 656 664
703 127 665 666
704 127 665 667
705 127 665 668
706 127 669 670
707 127 669 671
708 127 669 672
709 112 673 674
710 127 673 681
711 127 673 682
712 112 673 837
713 112 674 675
714 127 674 683
715 112 674 689
716 112 675 676
717 112 675 680
718 112 676 677
719 127 676 684
720 112 677 678
721 127 677 685
722 112 678 679
723 127 678 686
724 112 679 680
725 127 679 687
726 127 680 688
727 112 689 690
728 127 689 697
729 127 689 698
730 112 690 691
731 127 690 699
732 112 690 705
733 112 691 692
734 112 691 696
735 112 692 693
736 127 692 700
737 112 693 694
738 127 693 701
739 112 694 695
740 127 694 702
741 112 695 696
742 127 695 703
743 127 696 704
744 112 705 706
745 127 705 713
746 127 705 714
747 112 706 707
748 127 706 715
749 112 706 721
750 112 707 708
751 112 707 712
752 112 708 709
753 127 708 716
754 112 709 710
755 127 709 717
756 112 710 711
757 127 710 718
758 112 711 712
759 127 711 719
760 127 712 720
761 112 721 722
762 127 721 729
763 127 721 730
764 112 722 723
765 127 722 731
766 112 722 737
767 112 723 724
768 112 723 728
769 112 724 725
770 127 724 732
771 112 725 726
772 127 725 733
773 112 726 727
774 127 726 734
775 112 727 728
776 127 727 735
777 127 728 736
778 112 737 738
779 127 737 745
780 127 737 746
781 112 738 739
782 127 738 747
783 112 738 753
784 112 739 740
785 112 739 744
786 112 740 741
787 127 740 748
788 112 741 742
789 127 741 749
790 112 742 743
791 127 742 750
792 112 743 744
793 127 743 751
794 127 744 752
795 112 753 754
796 127 753 761
797 127 753 762
798 112 754 755
799 127 754 763
800 112 754 769
801 112 755 756
802 112 755 760
803 112 756 757
804 127 756 764
805 112 757 758
806 127 757 765
807 112 758 759
808 127 758 766
809 112 759 760
810 127 759 767
811 127 760 768
812 112 769 770
813 127 769 777
814 127 769 778
815 112 770 771
816 127 770 779
817 112 770 785
818 112 771 772
819 112 771 776
820 112 772 773
821 127 772 780
822 112 773 774
823 127 773 781
824 112 774 775
825 127 774 782
826 112 775 776
827 127 775 783
828 127 776 784
829 112 785 786
830 127 785 793
831 127 785 794
832 112 786 787
833 127 786 795
834 112 786 801
835 112 787 788
836 112 787 792
837 112 788 789
838 127 788 796
839 112 789 790
840 127 789 797
841 112 790 791
842 127 790 798
843 112 791 792
844 127 791 799
845 127 792 800
846 112 801 802
847 127 801 809
848 127 801 810
849 112 802 803
850 127 802 811
851 112 802 817
852 112 803 804
853 112 803 808
854 112 804 805
855 127 804 812
856 112 805 806
857 127 805 813
858 112 806 807
859 127 806 814
860 112 807 808
861 127 807 815
862 127 808 816
863 112 817 818
864 127 817 825
865 127 817 826
866 112 818 819
867 127 818 827
868 112 818 833
869 112 819 820
870 112 819 824
871 112 820 821
872 127 820 828
873 112 821 822
874 127 821 829
875 112 822 823
876 127 822 830
877 112 823 824
878 127 823 831
879 127 824 832
880 127 833 834
881 127 833 835
882 127 833 836
883 127 837 838
884 127 837 839
885 127 837 840
886 112 841 842
887 127 841 849
888 127 841 850
889 112 841 1005
890 112 842 843
891 127 842 851
892 112 842 857
893 112 843 844
894 112 843 848
895 112 844 845
896 127 844 852
897 112 845 846
898 127 845 853
899 112 846 847
900 127 846 854
901 112 847 848
902 127 847 855
903 127 848 856
904 112 857 858
905 127 857 865
906 127 857 866
907 112 858 859
908 127 858 867
909 112 858 873
910 112 859 860
911 112 859 864
912 112 860 861
913 127 860 868
914 112 861 862
915 127 861 869
916 112 862 863
917 127 862 870
918 112 863 864
919 127 863 871
920 127 864 872
921 112 873 874
922 127 873 881
923 127 873 882
924 112 874 875
925 127 874 883
926 112 874 889
927 112 875 876
928 112 875 880
929 112 876 877
930 127 876 884
931 112 877 878
932 127 877 885
933 112 878 879
934 127 878 886
935 112 879 880
936 127 879 887
937 127 880 888
938 112 889 890
939 127 889 897
940 127 889 898
941 112 890 891
942 127 890 899
943 112 890 905
944 112 891 892
945 112 891 896
946 112 892 893
947 127 892 900
948 112 893 894
949 127 893 901
950 112 894 895
951 127 894 902
952 112 895 896
953 127 895 903
954 127 896 904
955 112 905 906
956 127 905 913
957 127 905 914
958 112 906 907
959 127 906 915
960 112 906 921
961 112 907 908
962 112 907 912
963 112 908 909
964 127 908 916
965 112 909 910
966 127 909 917
967 112 910 911
968 127 910 918
969 112 911 912
970 127 911 919
971 127 912 920
972 112 921 922
973 127 921 929
974 127 921 930
975 112 922 923
976 127 922 931
977 112 922 937
978 112 923 924
979 112 923 928
980 112 924 925
981 127 924 932
982 112 925 926
983 127 925 933
984 112 926 927
985 127 926 934
986 112 927 928
987 127 927 935
988 127 928 936
989 112 937 938
990 127 937 945
991 127 937 946
992 112 938 939
993 127 938 947
994 112 938 953
995 112 939 940
996 112 939 944
997 112 940 941
998 127 940 948
999 112 941 942
1000 127 941 949
1001 112 942 943
1002 127 942 950
1003 112 943 944
1004 127 943 951
1005 127 944 952
1006 112 953 954
1007 127 953 961
1008 127 953 962
1009 112 954 955
1010 127 954 963
1011 112 954 969
1012 112 955 956
1013 112 955 960
1014 112 956 957
1015 127 956 964
1016 112 957 958
1017 127 957 965
1018 112 958 959
1019 127 958 966
1020 112 959 960
1021 127 959 967
1022 127 960 968
1023 112 969 970
1024 127 969 977
1025 127 969 978
1026 112 970 971
1027 127 970 979
1028 112 970 985
1029 112 971 972
1030 112 971 976
1031 112 972 973
1032 127 972 980
1033 112 973 974
1034 127 973 981
1035 112 974 975
1036 127 974 982
1037 112 975 976
1038 127 975 983
1039 127 976 984
1040 112 985 986
1041 127 985 993
1042 127 985 994
1043 112 986 987
1044 127 986 995
1045 112 986 1001
1046 112 987 988
1047 112 987 992
1048 112 988 989
1049 127 988 996
1050 112 989 990
1051 127 989 997
1052 112 990 991
1053 127 990 998
1054 112 991 992
1055 127 991 999
1056 127 992 1000
1057 127 1001 1002
1058 127 1001 1003
1059 127 1001 1004
1060 127 1005 1006
1061 127 1005 1007
1062 127 1005 1008
1063 112 1009 1010
1064 127 1009 1017
1065 127 1009 1018
1066 112 1009 1173
1067 112 1010 1011
1068 127 1010 1019
1069 112 1010 1025
1070 112 1011 1012
1071 112 1011 1016
1072 112 1012 1013
1073 127 1012 1020
1074 112 1013 1014
1075 127 1013 1021
1076 112 1014 1015
1077 127 1014 1022
1078 112 1015 1016
1079 127 1015 1023
1080 127 1016 1024
1081 112 1025 1026
1082 127 1025 1033
1083 127 1025 1034
1084 112 1026 1027
1085 127 1026 1035
1086 112 1026 1041
1087 112 1027 1028
1088 112 1027 1032
1089 112 1028 1029
1090 127 1028 1036
1091 112 1029 1030
1092 127 1029 1037
1093 112 1030 1031
1094 127 1030 1038
1095 112 1031 1032
1096 127 1031 1039
1097 127 1032 1040
1098 112 1041 1042
1099 127 1041 1049
1100 127 1041 1050
1101 112 1042 1043
1102 127 1042 1051
1103 112 1042 1057
1104 112 1043 1044
1105 112 1043 1048
1106 112 1044 1045
1107 127 1044 1052
1108 112 1045 1046
1109 127 1045 1053
1110 112 1046 1047
1111 127 1046 1054
1112 112 1047 1048
1113 127 1047 1055
1114 127 1048 1056
1115 112 1057 1058
1116 127 1057 1065
1117 127 1057 1066
1118 112 1058 1059
1119 127 1058 1067
1120 112 1058 1073
1121 112 1059 1060
1122 112 1059 1064
1123 112 1060 1061
1124 127 1060 1068
1125 112 1061 1062
1126 127 1061 1069
1127 112 1062 1063
1128 127 1062 1070
1129 112 1063 1064
1130 127 1063 1071
1131 127 1064 1072
1132 112 1073 1074
1133 127 1073 1081
1134 127 1073 1082
1135 112 1074 1075
1136 127 1074 1083
1137 112 1074 1089
1138 112 1075 1076
1139 112 1075 1080
1140 112 1076 1077
1141 127 1076 1084
1142 112 1077 1078
1143 127 1077 1085
1144 112 1078 1079
1145 127 1078 1086
1146 112 1079 1080
1147 127 1079 1087
1148 127 1080 1088
1149 112 1089 1090
1150 127 1089 1097
1151 127 1089 1098
1152 112 1090 1091
1153 127 1090 1099
1154 112 1090 1105
1155 112 1091 1092
1156 112 1091 1096
1157 112 1092 1093
1158 127 1092 1100
1159 112 1093 1094
1160 127 1093 1101
1161 112 1094 1095
1162 127 1094 1102
1163 112 1095 1096
1164 127 1095 1103
1165 127 1096 1104
1166 112 1105 1106
1167 127 1105 1113
1168 127 1105 1114
1169 112 1106 1107
1170 127 1106 1115
1171 112 1106 1121
1172 112 1107 1108
1173 112 1107 1112
1174 112 1108 1109
1175 127 1108 1116
1176 112 1109 1110
1177 127 1109 1117
1178 112 1110 1111
1179 127 1110 1118
1180 112 1111 1112
1181 127 1111 1119
1182 127 1112 1120
1183 112 1121 1122
1184 127 1121 1129
1185 127 1121 1130
1186 112 1122 1123
1187 127 1122 1131
1188 112 1122 1137
1189 112 1123 1124
1190 112 1123 1128
1191 112 1124 1125
1192 127 1124 1132
1193 112 1125 1126
1194 127 1125 1133
1195 112 1126 1127
1196 127 1126 1134
1197 112 1127 1128
1198 127 1127 1135
1199 127 1128 1136
1200 112 1137 1138
1201 127 1137 1145
1202 127 1137 1146
1203 112 1138 1139
1204 127 1138 1147
1205 112 1138 1153
1206 112 1139 1140
1207 112 1139 1144
1208 112 1140 1141
1209 127 1140 1148
1210 112 1141 1142
1211 127 1141 1149
1212 112 1142 1143
1213 127 1142 1150
1214 112 1143 1144
1215 127 1143 1151
1216 127 1144 1152
1217 112 1153 1154
1218 127 1153 1161
1219 127 1153 1162
1220 112 1154 1155
1221 127 1154 1163
1222 112 1154 1169
1223 112 1155 1156
1224 112 1155 1160
1225 112 1156 1157
1226 127 1156 1164
1227 112 1157 1158
1228 127 1157 1165
1229 112 1158 1159
1230 127 1158 1166
1231 112 1159 1160
1232 127 1159 1167
1233 127 1160 1168
1234 127 1169 1170
1235 127 1169 1171
1236 127 1169 1172
1237 127 1173 1174
1238 127 1173 1175
1239 127 1173 1176
1240 112 1177 1178
1241 127 1177 1185
1242 127 1177 1186
1243 112 1177 1341
1244 112 1178 1179
1245 127 1178 1187
1246 112 1178 1193
1247 112 1179 1180
1248 112 1179 1184
1249 112 1180 1181
1250 127 1180 1188
1251 112 1181 1182
1252 127 1181 1189
1253 112 1182 1183
1254 127 1182 1190
1255 112 1183 1184
1256 127 1183 1191
1257 127 1184 1192
1258 112 1193 1194
1259 127 1193 1201
1260 127 1193 1202
1261 112 1194 1195
1262 127 1194 1203
1263 112 1194 1209
1264 112 1195 1196
1265 112 1195 1200
1266 112 1196 1197
1267 127 1196 1204
1268 112 1197 1198
1269 127 1197 1205
1270 112 1198 1199
1271 127 1198 1206
1272 112 1199 1200
1273 127 1199 1207
1274 127 1200 1208
1275 112 1209 1210
1276 127 1209 1217
1277 127 1209 1218
1278 112 1210 1211
1279 127 1210 1219
1280 112 1210 1225
1281 112 1211 1212
1282 112 1211 1216
1283 112 1212 1213
1284 127 1212 1220
1285 112 1213 1214
1286 127 1213 1221
1287 112 1214 1215
1288 127 1214 1222
1289 112 1215 1216
1290 127 1215 1223
1291 127 1216 1224
1292 112 1225 1226
1293 127 1225 1233
1294 127 1225 1234
1295 112 1226 1227
1296 127 1226 1235
1297 112 1226 1241
1298 112 1227 1228
1299 112 1227 1232
1300 112 1228 1229
1301 127 1228 1236
1302 112 1229 1230
1303 127 1229 1237
1304 112 1230 1231
1305 127 1230 1238
1306 112 1231 1232
1307 127 1231 1239
1308 127 1232 1240
1309 112 1241 1242
1310 127 1241 1249
1311 127 1241 1250
1312 112 1242 1243
1313 127 1242 1251
1314 112 1242 1257
1315 112 1243 1244
1316 112 1243 1248
1317 112 1244 1245
1318 127 1244 1252
1319 112 1245 1246
1320 127 1245 1253
1321 112 1246 1247
1322 127 1246 1254
1323 112 1247 1248
1324 127 1247 1255
1325 127 1248 1256
1326 112 1257 1258
1327 127 1257 1265
1328 127 1257 1266
1329 112 1258 1259
1330 127 1258 1267
1331 112 1258 1273
1332 112 1259 1260
1333 112 1259 1264
1334 112 1260 1261
1335 127 1260 1268
1336 112 1261 1262
1337 127 1261 1269
1338 112 1262 1263
1339 127 1262 1270
1340 112 1263 1264
1341 127 1263 1271
1342 127 1264 1272
1343 112 1273 1274
1344 127 1273 1281
1345 127 1273 1282
1346 112 1274 1275
1347 127 1274 1283
1348 112 1274 1289
1349 112 1275 1276
1350 112 1275 1280
1351 112 1276 1277
1352 127 1276 1284
1353 112 1277 1278
1354 127 1277 1285
1355 112 1278 1279
1356 127 1278 1286
1357 112 1279 1280
1358 127 1279 1287
1359 127 1280 1288
1360 112 1289 1290
1361 127 1289 1297
1362 127 1289 1298
1363 112 1290 1291
1364 127 1290 1299
1365 112 1290 1305
1366 112 1291 1292
1367 112 1291 1296
1368 112 1292 1293
1369 127 1292 1300
1370 112 1293 1294
1371 127 1293 1301
1372 112 1294 1295
1373 127 1294 1302
1374 112 1295 1296
1375 127 1295 1303
1376 127 1296 1304
1377 112 1305 1306
1378 127 1305 1313
1379 127 1305 1314
1380 112 1306 1307
1381 127 1306 1315
1382 112 1306 1321
1383 112 1307 1308
1384 112 1307 1312
1385 112 1308 1309
1386 127 1308 1316
1387 112 1309 1310
1388 127 1309 1317
1389 112 1310 1311
1390 127 1310 1318
1391 112 1311 1312
1392 127 1311 1319
1393 127 1312 1320
1394 112 1321 1322
1395 127 1321 1329
1396 127 1321 1330
1397 112 1322 1323
1398 127 1322 1331
1399 112 1322 1337
1400 112 1323 1324
1401 112 1323 1328
1402 112 1324 1325
1403 127 1324 1332
1404 112 1325 1326
1405 127 1325 1333
1406 112 1326 1327
1407 127 1326 1334
1408 112 1327 1328
1409 127 1327 1335
1410 127 1328 1336
1411 127 1337 1338
1412 127 1337 1339
1413 127 1337 1340
1414 127 1341 1342
1415 127 1341 1343
1416 127 1341 1344
1417 112 1345 1346
1418 127 1345 1353
1419 127 1345 1354
1420 112 1345 1509
1421 112 1346 1347
1422 127 1346 1355
1423 112 1346 1361
1424 112 1347 1348
1425 112 1347 1352
1426 112 1348 1349
1427 127 1348 1356
1428 112 1349 1350
1429 127 1349 1357
1430 112 1350 1351
1431 127 1350 1358
1432 112 1351 1352
1433 127 1351 1359
1434 127 1352 1360
1435 112 1361 1362
1436 127 1361 1369
1437 127 1361 1370
1438 112 1362 1363
1439 127 1362 1371
1440 112 1362 1377
1441 112 1363 1364
1442 112 1363 1368
1443 112 1364 1365
1444 127 1364 1372
1445 112 1365 1366
1446 127 1365 1373
1447 112 1366 1367
1448 127 1366 1374
1449 112 1367 1368
1450 127 1367 1375
1451 127 1368 1376
1452 112 1377 1378
1453 127 1377 1385
1454 127 1377 1386
1455 112 1378 1379
1456 127 1378 1387
1457 112 1378 1393
1458 112 1379 1380
1459 112 1379 1384
1460 112 1380 1381
1461 127 1380 1388
1462 112 1381 1382
1463 127 1381 1389
1464 112 1382 1383
1465 127 1382 1390
1466 112 1383 1384
1467 127 1383 1391
1468 127 1384 1392
1469 112 1393 1394
1470 127 1393 1401
1471 127 1393 1402
1472 112 1394 1395
1473 127 1394 1403
1474 112 1394 1409
1475 112 1395 1396
1476 112 1395 1400
1477 112 1396 1397
1478 127 1396 1404
1479 112 1397 1398
1480 127 1397 1405
1481 112 1398 1399
1482 127 1398 1406
1483 112 1399 1400
1484 127 1399 1407
1485 127 1400 1408
1486 112 1409 1410
1487 127 1409 1417
1488 127 1409 1418
1489 112 1410 1411
1490 127 1410 1419
1491 112 1410 1425
1492 112 1411 1412
1493 112 1411 1416
1494 112 1412 1413
1495 127 1412 1420
1496 112 1413 1414
1497 127 1413 1421
1498 112 1414 1415
1499 127 1414 1422
1500 112 1415 1416
1501 127 1415 1423
1502 127 1416 1424
1503 112 1425 1426
1504 127 1425 1433
1505 127 1425 1434
1506 112 1426 1427
1507 127 1426 1435
1508 112 1426 1441
1509 112 1427 1428
1510 112 1427 1432
1511 112 1428 1429
1512 127 1428 1436
1513 112 1429 1430
1514 127 1429 1437
1515 112 1430 1431
1516 127 1430 1438
1517 112 1431 1432
1518 127 1431 1439
1519 127 1432 1440
1520 112 1441 1442
1521 127 1441 1449
1522 127 1441 1450
1523 112 1442 1443
1524 127 1442 1451
1525 112 1442 1457
1526 112 1443 1444
1527 112 1443 1448
1528 112 1444 1445
1529 127 1444 1452
1530 112 1445 1446
1531 127 1445 1453
1532 112 1446 1447
1533 127 1446 1454
1534 112 1447 1448
1535 127 1447 1455
1536 127 1448 1456
1537 112 1457 1458
1538 127 1457 1465
1539 127 1457 1466
1540 112 1458 1459
1541 127 1458 1467
1542 112 1458 1473
1543 112 1459 1460
1544 112 1459 1464
1545 112 1460 1461
1546 127 1460 1468
1547 112 1461 1462
1548 127 1461 1469
1549 112 1462 1463
1550 127 1462 1470
1551 112 1463 1464
1552 127 1463 1471
1553 127 1464 1472
1554 112 1473 1474
1555 127 1473 1481
1556 127 1473 1482
1557 112 1474 1475
1558 127 1474 1483
1559 112 1474 1489
1560 112 1475 1476
1561 112 1475 1480
1562 112 1476 1477
1563 127 1476 1484
1564 112 1477 1478
1565 127 1477 1485
1566 112 1478 1479
1567 127 1478 1486
1568 112 1479 1480
1569 127 1479 1487
1570 127 1480 1488
1571 112 1489 1490
1572 127 1489 1497
1573 127 1489 1498
1574 112 1490 1491
1575 127 1490 1499
1576 112 1490 1505
1577 112 1491 1492
1578 112 1491 1496
1579 112 1492 1493
1580 127 1492 1500
1581 112 1493 1494
1582 127 1493 1501
1583 112 1494 1495
1584 127 1494 1502
1585 112 1495 1496
1586 127 1495 1503
1587 127 1496 1504
1588 127 1505 1506
1589 127 1505 1507
1590 127 1505 1508
1591 127 1509 1510
1592 127 1509 1511
1593 127 1509 1512
1594 112 1513 1514
1595 127 1513 1521
1596 127 1513 1522
1597 112 1513 1677
1598 112 1514 1515
1599 127 1514 1523
1600 112 1514 1529
1601 112 1515 1516
1602 112 1515 1520
1603 112 1516 1517
1604 127 1516 1524
1605 112 1517 1518
1606 127 1517 1525
1607 112 1518 1519
1608 127 1518 1526
1609 112 1519 1520
1610 127 1519 1527
1611 127 1520 1528
1612 112 1529 1530
1613 127 1529 1537
1614 127 1529 1538
1615 112 1530 1531
1616 127 1530 1539
1617 112 1530 1545
1618 112 1531 1532
1619 112 1531 1536
1620 112 1532 1533
1621 127 1532 1540
1622 112 1533 1534
1623 127 1533 1541
1624 112 1534 1535
1625 127 1534 1542
1626 112 1535 1536
1627 127 1535 1543
1628 127 1536 1544
1629 112 1545 1546
1630 127 1545 1553
1631 127 1545 1554
1632 112 1546 1547
1633 127 1546 1555
1634 112 1546 1561
1635 112 1547 1548
1636 112 1547 1552
1637 112 1548 1549
1638 127 1548 1556
1639 112 1549 1550
1640 127 1549 1557
1641 112 1550 1551
1642 127 1550 1558
1643 112 1551 1552
1644 127 1551 1559
1645 127 1552 1560
1646 112 1561 1562
1647 127 1561 1569
1648 127 1561 1570
1649 112 1562 1563
1650 127 1562 1571
1651 112 1562 1577
1652 112 1563 1564
1653 112 1563 1568
1654 112 1564 1565
1655 127 1564 1572
1656 112 1565 1566
1657 127 1565 1573
1658 112 1566 1567
1659 127 1566 1574
1660 112 1567 1568
1661 127 1567 1575
1662 127 1568 1576
1663 112 1577 1578
1664 127 1577 1585
1665 127 1577 1586
1666 112 1578 1579
1667 127 1578 1587
1668 112 1578 1593
1669 112 1579 1580
1670 112 1579 1584
1671 112 1580 1581
1672 127 1580 1588
1673 112 1581 1582
1674 127 1581 1589
1675 112 1582 1583
1676 127 1582 1590
1677 112 1583 1584
1678 127 1583 1591
1679 127 1584 1592
1680 112 1593 1594
1681 127 1593 1601
1682 127 1593 1602
1683 112 1594 1595
1684 127 1594 1603
1685 112 1594 1609
1686 112 1595 1596
1687 112 1595 1600
1688 112 1596 1597
1689 127 1596 1604
1690 112 1597 1598
1691 127 1597 1605
1692 112 1598 1599
1693 127 1598 1606
1694 112 1599 1600
1695 127 1599 1607
1696 127 1600 1608
1697 112 1609 1610
1698 127 1609 1617
1699 127 1609 1618
1700 112 1610 1611
1701 127 1610 1619
1702 112 1610 1625
1703 112 1611 1612
1704 112 1611 1616
1705 112 1612 1613
1706 127 1612 1620
1707 112 1613 1614
1708 127 1613 1621
1709 112 1614 1615
1710 127 1614 1622
1711 112 1615 1616
1712 127 1615 1623
1713 127 1616 1624
1714 112 1625 1626
1715 127 1625 1633
1716 127 1625 1634
1717 112 1626 1627
1718 127 1626 1635
1719 112 1626 1641
1720 112 1627 1628
1721 112 1627 1632
1722 112 1628 1629
1723 127 1628 1636
1724 112 1629 1630
1725 127 1629 1637
1726 112 1630 1631
1727 127 1630 1638
1728 112 1631 1632
1729 127 1631 1639
1730 127 1632 1640
1731 112 1641 1642
1732 127 1641 1649
1733 127 1641 1650
1734 112 1642 1643
1735 127 1642 1651
1736 112 1642 1657
1737 112 1643 1644
1738 112 1643 1648
1739 112 1644 1645
1740 127 1644 1652
1741 112 1645 1646
1742 127 1645 1653
1743 112 1646 1647
1744 127 1646 1654
1745 112 1647 1648
1746 127 1647 1655
1747 127 1648 1656
1748 112 1657 1658
1749 127 1657 1665
1750 127 1657 1666
1751 112 1658 1659
1752 127 1658 1667
1753 112 1658 1673
1754 112 1659 1660
1755 112 1659 1664
1756 112 1660 1661
1757 127 1660 1668
1758 112 1661 1662
1759 127 1661 1669
1760 112 1662 1663
1761 127 1662 1670
1762 112 1663 1664
1763 127 1663 1671
1764 127 1664 1672
1765 127 1673 1674
1766 127 1673 1675
1767 127 1673 1676
1768 127 1677 1678
1769 127 1677 1679
1770 127 1677 1680

Angles

1 315 1 2 3
2 315 1 2 17
3 315 2 1 165
4 315 2 3 4
5 315 2 3 8
6 315 2 17 18
7 315 3 2 17
8 315 3 4 5
9 315 3 8 7
10 315 4 3 8
11 315 4 5 6
12 315 5 6 7
13 315 6 7 8
14 315 17 18 19
15 315 17 18 33
16 315 18 19 20
17 315 18 19 24
18 315 18 33 34
19 315 19 18 33
20 315 19 20 21
21 315 19 24 23
22 315 20 19 24
23 315 20 21 22
24 315 21 22 23
25 315 22 23 24
26 315 33 34 35
27 315 33 34 49
28 315 34 35 36
29 315 34 35 40
30 315 34 49 50
31 315 35 34 49
32 315 35 36 37
33 315 35 40 39
34 315 36 35 40
35 315 36 37 38
36 315 37 38 39
37 315 38 39 40
38 315 49 50 51
39 315 49 50 65
40 315 50 51 52
41 315 50 51 56
42 315 50 65 66
43 315 51 50 65
44 315 51 52 53
45 315 51 56 55
46 315 52 51 56
47 315 52 53 54
48 315 53 54 55
49 315 54 55 56
50 315 65 66 67
51 315 65 66 81
52 315 66 67 68
53 315 66 67 72
54 315 66 81 82
55 315 67 66 81
56 315 67 68 69
57 315 67 72 71
58 315 68 67 72
59 315 68 69 70
60 315 69 70 71
61 315 70 71 72
62 315 81 82 83
63 315 81 82 97
64 315 82 83 84
65 315 82 83 88
66 315 82 97 98
67 315 83 82 97
68 315 83 84 85
69 315 83 88 87
70 315 84 83 88
71 315 84 85 86
72 315 85 86 87
73 315 86 87 88
74 315 97 98 99
75 315 97 98 113
76 315 98 99 100
77 315 98 99 104
78 315 98 113 114
79 315 99 98 113
80 315 99 100 101
81 315 99 104 103
82 315 100 99 104
83 315 100 101 102
84 315 101 102 103
85 315 102 103 104
86 315 113 114 115
87 315 113 114 129
88 315 114 115 116
89 315 114 115 120
90 315 114 129 130
91 315 115 114 129
92 315 115 116 117
93 315 115 120 119
94 315 116 115 120
95 315 116 117 118
96 315 117 118 119
97 315 118 119 120
98 315 129 130 131
99 315 129 130 145
100 315 130 131 132
101 315 130 131 136
102 315 130 145 146
103 315 131 130 145
104 315 131 132 133
105 315 131 136 135
106 315 132 131 136
107 315 132 133 134
108 315 133 134 135
109 315 134 135 136
110 315 145 146 147
111 315 145 146 161
112 315 146 147 148
113 315 146 147 152
114 315 147 146 161
115 315 147 148 149
116 315 147 152 151
117 315 148 147 152
118 315 148 149 150
119 315 149 150 151
120 315 150 151 152
121 315 169 170 171
122 315 169 170 185
123 315 170 169 333
124 315 170 171 172
125 315 170 171 176
126 315 170 185 186
127 315 171 170 185
128 315 171 172 173
129 315 171 176 175
130 315 172 171 176
131 315 172 173 174
132 315 173 174 175
133 315 174 175 176
134 315 185 186 187
135 315 185 186 201
136 315 186 187 188
137 315 186 187 192
138 315 186 201 202
139 315 187 186 201
140 315 187 188 189
141 315 187 192 191
142 315 188 187 192
143 315 188 189 190
144 315 189 190 191
145 315 190 191 192
146 315 201 202 203
147 315 201 202 217
148 315 202 203 204
149 315 202 203 208
150 315 202 217 218
151 315 203 202 217
152 315 203 204 205
153 315 203 208 207
154 315 204 203 208
155 315 204 205 206
156 315 205 206 207
157 315 206 207 208
158 315 217 218 219
159 315 217 218 233
160 315 218 219 220
161 315 218 219 224
162 315 218 233 234
163 315 219 218 233
164 315 219 220 221
165 315 219 224 223
166 315 220 219 224
167 315 220 221 222
168 315 221 222 223
169 315 222 223 224
170 315 233 234 235
171 315 233 234 249
172 315 234 235 236
173 315 234 235 240
174 315 234 249 250
175 315 235 234 249
176 315 235 236 237
177 315 235 240 239
178 315 236 235 240
179 315 236 237 238
180 315 237 238 239
181 315 238 239 240
182 315 249 250 251
183 315 249 250 265
184 315 250 251 252
185 315 250 251 256
186 315 250 265 266
187 315 251 250 265
188 315 251 252 253
189 315 251 256 255
190 315 252 251 256
191 315 252 253 254
192 315 253 254 255
193 315 254 255 256
194 315 265 266 267
195 315 265 266 281
196 315 266 267 268
197 315 266 267 272
198 315 266 281 282
199 315 267 266 281
200 315 267 268 269
201 315 267 272 271
202 315 268 267 272
203 315 268 269 270
204 315 269 270 271
205 315 270 271 272
206 315 281 282 283
207 315 281 282 297
208 315 282 283 284
209 315 282 283 288
210 315 282 297 298
211 315 283 282 297
212 315 283 284 285
213 315 283 288 287
214 315 284 283 288
215 315 284 285 286
216 315 285 286 287
217 315 286 287 288
218 315 297 298 299
219 315 297 298 313
220 315 298 299 300
221 315 298 299 304
222 315 298 313 314
223 315 299 298 313
224 315 299 300 301
225 315 299 304 303
226 315 300 299 304
227 315 300 301 302
228 315 301 302 303
229 315 302 303 304
230 315 313 314 315
231 315 313 314 329
232 315 314 315 316
233 315 314 315 320
234 315 315 314 329
235 315 315 316 317
236 315 315 320 319
237 315 316 315 320
238 315 316 317 318
239 315 317 318 319
240 315 318 319 320
241 315 337 338 339
242 315 337 338 353
243 315 338 337 501
244 315 338 339 340
245 315 338 339 344
246 315 338 353 354
247 315 339 338 353
248 315 339 340 341
249 315 339 344 343
250 315 340 339 344
251 315 340 341 342
252 315 341 342 343
253 315 342 343 344
254 315 353 354 355
255 315 353 354 369
256 315 354 355 356
257 315 354 355 360
258 315 354 369 370
259 315 355 354 369
260 315 355 356 357
261 315 355 360 359
262 315 356 355 360
263 315 356 357 358
264 315 357 358 359
265 315 358 359 360
266 315 369 370 371
267 315 369 370 385
268 315 370 371 372
269 315 370 371 376
270 315 370 385 386
271 315 371 370 385
272 315 371 372 373
273 315 371 376 375
274 315 372 371 376
275 315 372 373 374
276 315 373 374 375
277 315 374 375 376
278 315 385 386 387
279 315 385 386 401
280 315 386 387 388
281 315 386 387 392
282 315 386 401 402
283 315 387 386 401
284 315 387 388 389
285 315 387 392 391
286 315 388 387 392
287 315 388 389 390
288 315 389 390 391
289 315 390 391 392
290 315 401 402 403
291 315 401 402 417
292 315 402 403 404
293 315 402 403 408
294 315 402 417 418
295 315 403 402 417
296 315 403 404 405
297 315 403 408 407
298 315 404 403 408
299 315 404 405 406
300 315 405 406 407
301 315 406 407 408
302 315 417 418 419
303 315 417 418 433
304 315 418 419 420
305 315 418 419 424
306 315 418 433 434
307 315 419 418 433
308 315 419 420 421
309 315 419 424 423
310 315 420 419 424
311 315 420 421 422
312 315 421 422 423
313 315 422 423 424
314 315 433 434 435
315 315 433 434 449
316 315 434 435 436
317 315 434 435 440
318 315 434 449 450
319 315 435 434 449
320 315 435 436 437
321 315 435 440 439
322 315 436 435 440
323 315 436 437 438
324 315 437 438 439
325 315 438 439 440
326 315 449 450 451
327 315 449 450 465
328 315 450 451 452
329 315 450 451 456
330 315 450 465 466
331 315 451 450 465
332 315 451 452 453
333 315 451 456 455
334 315 452 451 456
335 315 452 453 454
336 315 453 454 455
337 315 454 455 456
338 315 465 466 467
339 315 465 466 481
340 315 466 467 468
341 315 466 467 472
342 315 466 481 482
343 315 467 466 481
344 315 467 468 469
345 315 467 472 471
346 315 468 467 472
347 315 468 469 470
348 315 469 470 471
349 315 470 471 472
350 315 481 482 483
351 315 481 482 497
352 315 482 483 484
353 315 482 483 488
354 315 483 482 497
355 315 483 484 485
356 315 483 488 487
357 315 484 483 488
358 315 484 485 486
359 315 485 486 487
360 315 486 487 488
361 315 505 506 507
362 315 505 506 521
363 315 506 505 669
364 315 506 507 508
365 315 506 507 512
366 315 506 521 522
367 315 507 506 521
368 315 507 508 509
369 315 507 512 511
370 315 508 507 512
371 315 508 509 510
372 315 509 510 511
373 315 510 511 512
374 315 521 522 523
375 315 521 522 537
376 315 522 523 524
377 315 522 523 528
378 315 522 537 538
379 315 523 522 537
380 315 523 524 525
381 315 523 528 527
382 315 524 523 528
383 315 524 525 526
384 315 525 526 527
385 315 526 527 528
386 315 537 538 539
387 315 537 538 553
388 315 538 539 540
389 315 538 539 544
390 315 538 553 554
391 315 539 538 553
392 315 539 540 541
393 315 539 544 543
394 315 540 539 544
395 315 540 541 542
396 315 541 542 543
397 315 542 543 544
398 315 553 554 555
399 315 553 554 569
400 315 554 555 556
401 315 554 555 560
402 315 554 569 570
403 315 555 554 569
404 315 555 556 557
405 315 555 560 559
406 315 556 555 560
407 315 556 557 558
408 315 557 558 559
409 315 558 559 560
410 315 569 570 571
411 315 569 570 585
412 315 570 571 572
413 315 570 571 576
414 315 570 585 586
415 315 571 570 585
416 315 571 572 573
417 315 571 576 575
418 315 572 571 576
419 315 572 573 574
420 315 573 574 575
421 315 574 575 576
422 315 585 586 587
423 315 585 586 601
424 315 586 587 588
425 315 586 587 592
426 315 586 601 602
427 315 587 586 601
428 315 587 588 589
429 315 587 592 591
430 315 588 587 592
431 315 588 589 590
432 315 589 590 591
433 315 590 591 592
434 315 601 602 603
435 315 601 602 617
436 315 602 603 604
437 315 602 603 608
438 315 602 617 618
439 315 603 602 617
440 315 603 604 605
441 315 603 608 607
442 315 604 603 608
443 315 604 605 606
444 315 605 606 607
445 315 606 607 608
446 315 617 618 619
447 315 617 618 633
448 315 618 619 620
449 315 618 619 624
450 315 618 633 634
451 315 619 618 633
452 315 619 620 621
453 315 619 624 623
454 315 620 619 624
455 315 620 621 622
456 315 621 622 623
457 315 622 623 624
458 315 633 634 635
459 315 633 634 649
460 315 634 635 636
461 315 634 635 640
462 315 634 649 650
463 315 635 634 649
464 315 635 636 637
465 315 635 640 639
466 315 636 635 640
467 315 636 637 638
468 315 637 638 639
469 315 638 639 640
470 315 649 650 651
471 315 649 650 665
472 315 650 651 652
473 315 650 651 656
474 315 651 650 665
475 315 651 652 653
476 315 651 656 655
477 315 652 651 656
478 315 652 653 654
479 315 653 654 655
480 315 654 655 656
481 315 673 674 675
482 315 673 674 689
483 315 674 673 837
484 315 674 675 676
485 315 674 675 680
486 315 674 689 690
487 315 675 674 689
488 315 675 676 677
489 315 675 680 679
490 315 676 675 680
491 315 676 677 678
492 315 677 678 679
493 315 678 679 680
494 315 689 690 691
495 315 689 690 705
496 315 690 691 692
497 315 690 691 696
498 315 690 705 706
499 315 691 690 705
500 315 691 692 693
501 315 691 696 695
502 315 692 691 696
503 315 692 693 694
504 315 693 694 695
505 315 694 695 696
506 315 705 706 707
507 315 705 706 721
508 315 706 707 708
509 315 706 707 712
510 315 706 721 722
511 315 707 706 721
512 315 707 708 709
513 315 707 712 711
514 315 708 707 712
515 315 708 709 710
516 315 709 710 711
517 315 710 711 712
518 315 721 722 723
519 315 721 722 737
520 315 722 723 724
521 315 722 723 728
522 315 722 737 738
523 315 723 722 737
524 315 723 724 725
525 315 723 728 727
526 315 724 723 728
527 315 724 725 726
528 315 725 726 727
529 315 726 727 728
530 315 737 738 739
531 315 737 738 753
532 315 738 739 740
533 315 738 739 744
534 315 738 753 754
535 315 739 738 753
536 315 739 740 741
537 315 739 744 743
538 315 740 739 744
539 315 740 741 742
540 315 741 742 743
541 315 742 743 744
542 315 753 754 755
543 315 753 754 769
544 315 754 755 756
545 315 754 755 760
546 315 754 769 770
547 315 755 754 769
548 315 755 756 757
549 315 755 760 759
550 315 756 755 760
551 315 756 757 758
552 315 757 758 759
553 315 758 759 760
554 315 769 770 771
555 315 769 770 785
556 315 770 771 772
557 315 770 771 776
558 315 770 785 786
559 315 771 770 785
560 315 771 772 773
561 315 771 776 775
562 315 772 771 776
563 315 772 773 774
564 315 773 774 775
565 315 774 775 776
566 315 785 786 787
567 315 785 786 801
568 315 786 787 788
569 315 786 787 792
570 315 786 801 802
571 315 787 786 801
572 315 787 788 789
573 315 787 792 791
574 315 788 787 792
575 315 788 789 790
576 315 789 790 791
577 315 790 791 792
578 315 801 802 803
579 315 801 802 817
580 315 802 803 804
581 315 802 803 808
582 315 802 817 818
583 315 803 802 817
584 315 803 804 805
585 315 803 808 807
586 315 804 803 808
587 315 804 805 806
588 315 805 806 807
589 315 806 807 808
590 315 817 818 819
591 315 817 818 833
592 315 818 819 820
593 315 818 819 824
594 315 819 818 833
595 315 819 820 821
596 315 819 824 823
597 315 820 819 824
598 315 820 821 822
599 315 821 822 823
600 315 822 823 824
601 315 841 842 843
602 315 841 842 857
603 315 842 841 1005
604 315 842 843 844
605 315 842 843 848
606 315 842 857 858
607 315 843 842 857
608 315 843 844 845
609 315 843 848 847
610 315 844 843 848
611 315 844 845 846
612 315 845 846 847
613 315 846 847 848
614 315 857 858 859
615 315 857 858 873
616 315 858 859 860
617 315 858 859 864
618 315 858 873 874
619 315 859 858 873
620 315 859 860 861
621 315 859 864 863
622 315 860 859 864
623 315 860 861 862
624 315 861 862 863
625 315 862 863 864
626 315 873 874 875
627 315 873 874 889
628 315 874 875 876
629 315 874 875 880
630 315 874 889 890
631 315 875 874 889
632 315 875 876 877
633 315 875 880 879
634 315 876 875 880
635 315 876 877 878
636 315 877 878 879
637 315 878 879 880
638 315 889 890 891
639 315 889 890 905
640 315 890 891 892
641 315 890 891 896
642 315 890 905 906
643 315 891 890 905
644 315 891 892 893
645 315 891 896 895
646 315 892 891 896
647 315 892 893 894
648 315 893 894 895
649 315 894 895 896
650 315 905 906 907
651 315 905 906 921
652 315 906 907 908
653 315 906 907 912
654 315 906 921 922
655 315 907 906 921
656 315 907 908 909
657 315 907 912 911
658 315 908 907 912
659 315 908 909 910
660 315 909 910 911
661 315 910 911 912
662 315 921 922 923
663 315 921 922 937
664 315 922 923 924
665 315 922 923 928
666 315 922 937 938
667 315 923 922 937
668 315 923 924 925
669 315 923 928 927
670 315 924 923 928
671 315 924 925 926
672 315 925 926 927
673 315 926 927 928
674 315 937 938 939
675 315 937 938 953
676 315 938 939 940
677 315 938 939 944
678 315 938 953 954
679 315 939 938 953
680 315 939 940 941
681 315 939 944 943
682 315 940 939 944
683 315 940 941 942
684 315 941 942 943
685 315 942 943 944
686 315 953 954 955
687 315 953 954 969
688 315 954 955 956
689 315 954 955 960
690 315 954 969 970
691 315 955 954 969
692 315 955 956 957
693 315 955 960 959
694 315 956 955 960
695 315 956 957 958
696 315 957 958 959
697 315 958 959 960
698 315 969 970 971
699 315 969 970 985
700 315 970 971 972
701 315 970 971 976
702 315 970 985 986
703 315 971 970 985
704 315 971 972 973
705 315 971 976 975
706 315 972 971 976
707 315 972 973 974
708 315 973 974 975
709 315 974 975 976
710 315 985 986 987
711 315 985 986 1001
712 315 986 987 988
713 315 986 987 992
714 315 987 986 1001
715 315 987 988 989
716 315 987 992 991
717 315 988 987 992
718 315 988 989 990
719 315 989 990 991
720 315 990 991 992
721 315 1009 1010 1011
722 315 1009 1010 1025
723 315 1010 1009 1173
724 315 1010 1011 1012
725 315 1010 1011 1016
726 315 1010 1025 1026
727 315 1011 1010 1025
728 315 1011 1012 1013
729 315 1011 1016 1015
730 315 1012 1011 1016
731 315 1012 1013 1014
732 315 1013 1014 1015
733 315 1014 1015 1016
734 315 1025 1026 1027
735 315 1025 1026 1041
736 315 1026 1027 1028
737 315 1026 1027 1032
738 315 1026 1041 1042
739 315 1027 1026 1041
740 315 1027 1028 1029
741 315 1027 1032 1031
742 315 1028 1027 1032
743 315 1028 1029 1030
744 315 1029 1030 1031
745 315 1030 1031 1032
746 315 1041 1042 1043
747 315 1041 1042 1057
748 315 1042 1043 1044
749 315 1042 1043 1048
750 315 1042 1057 1058
751 315 1043 1042 1057
752 315 1043 1044 1045
753 315 1043 1048 1047
754 315 1044 1043 1048
755 315 1044 1045 1046
756 315 1045 1046 1047
757 315 1046 1047 1048
758 315 1057 1058 1059
759 315 1057 1058 1073
760 315 1058 1059 1060
761 315 1058 1059 1064
762 315 1058 1073 1074
763 315 1059 1058 1073
764 315 1059 1060 1061
765 315 1059 1064 1063
766 315 1060 1059 1064
767 315 1060 1061 1062
768 315 1061 1062 1063
769 315 1062 1063 1064
770 315 1073 1074 1075
771 315 1073 1074 1089
772 315 1074 1075 1076
773 315 1074 1075 1080
774 315 1074 1089 1090
775 315 1075 1074 1089
776 315 1075 1076 1077
777 315 1075 1080 1079
778 315 1076 1075 1080
779 315 1076 1077 1078
780 315 1077 1078 1079
781 315 1078 1079 1080
782 315 1089 1090 1091
783 315 1089 1090 1105
784 315 1090 1091 1092
785 315 1090 1091 1096
786 315 1090 1105 1106
787 315 1091 1090 1105
788 315 1091 1092 1093
789 315 1091 1096 1095
790 315 1092 1091 1096
791 315 1092 1093 1094
792 315 1093 1094 1095
793 315 1094 1095 1096
794 315 1105 1106 1107
795 315 1105 1106 1121
796 315 1106 1107 1108
797 315 1106 1107 1112
798 315 1106 1121 1122
799 315 1107 1106 1121
800 315 1107 1108 1109
801 315 1107 1112 1111
802 315 1108 1107 1112
803 315 1108 1109 1110
804 315 1109 1110 1111
805 315 1110 1111 1112
806 315 1121 1122 1123
807 315 1121 1122 1137
808 315 1122 1123 1124
809 315 1122 1123 1128
810 315 1122 1137 1138
811 315 1123 1122 1137
812 315 1123 1124 1125
813 315 1123 1128 1127
814 315 1124 1123 1128
815 315 1124 1125 1126
816 315 1125 1126 1127
817 315 1126 1127 1128
818 315 1137 1138 1139
819 315 1137 1138 1153
820 315 1138 1139 1140
821 315 1138 1139 1144
822 315 1138 1153 1154
823 315 1139 1138 1153
824 315 1139 1140 1141
825 315 1139 1144 1143
826 315 1140 1139 1144
827 315 1140 1141 1142
828 315 1141 1142 1143
829 315 1142 1143 1144
830 315 1153 1154 1155
831 315 1153 1154 1169
832 315 1154 1155 1156
833 315 1154 1155 1160
834 315 1155 1154 1169
835 315 1155 1156 1157
836 315 1155 1160 1159
837 315 1156 1155 1160
838 315 1156 1157 1158
839 315 1157 1158 1159
840 315 1158 1159 1160
841 315 1177 1178 1179
842 315 1177 1178 1193
843 315 1178 1177 1341
844 315 1178 1179 1180
845 315 1178 1179 1184
846 315 1178 1193 1194
847 315 1179 1178 1193
848 315 1179 1180 1181
849 315 1179 1184 1183
850 315 1180 1179 1184
851 315 1180 1181 1182
852 315 1181 1182 1183
853 315 1182 1183 1184
854 315 1193 1194 1195
855 315 1193 1194 1209
856 315 1194 1195 1196
857 315 1194 1195 1200
858 315 1194 1209 1210
859 315 1195 1194 1209
860 315 1195 1196 1197
861 315 1195 1200 1199
862 315 1196 1195 1200
863 315 1196 1197 1198
864 315 1197 1198 1199
865 315 1198 1199 1200
866 315 1209 1210 1211
867 315 1209 1210 1225
868 315 1210 1211 1212
869 315 1210 1211 1216
870 315 1210 1225 1226
871 315 1211 1210 1225
872 315 1211 1212 1213
873 315 1211 1216 1215
874 315 1212 1211 1216
875 315 1212 1213 1214
876 315 1213 1214 1215
877 315 1214 1215 1216
878 315 1225 1226 1227
879 315 1225 1226 1241
880 315 1226 1227 1228
881 315 1226 1227 1232
882 315 1226 1241 1242
883 315 1227 1226 1241
884 315 1227 1228 1229
885 315 1227 1232 1231
886 315 1228 1227 1232
887 315 1228 1229 1230
888 315 1229 1230 1231
889 315 1230 1231 1232
890 315 1241 1242 1243
891 315 1241 1242 1257
892 315 1242 1243 1244
893 315 1242 1243 1248
894 315 1242 1257 1258
895 315 1243 1242 1257
896 315 1243 1244 1245
897 315 1243 1248 1247
898 315 1244 1243 1248
899 315 1244 1245 1246
900 315 1245 1246 1247
901 315 1246 1247 1248
902 315 1257 1258 1259
903 315 1257 1258 1273
904 315 1258 1259 1260
905 315 1258 1259 1264
906 315 1258 1273 1274
907 315 1259 1258 1273
908 315 1259 1260 1261
909 315 1259 1264 1263
910 315 1260 1259 1264
911 315 1260 1261 1262
912 315 1261 1262 1263
913 315 1262 1263 1264
914 315 1273 1274 1275
915 315 1273 1274 1289
916 315 1274 1275 1276
917 315 1274 1275 1280
918 315 1274 1289 1290
919 315 1275 1274 1289
920 315 1275 1276 1277
921 315 1275 1280 1279
922 315 1276 1275 1280
923 315 1276 1277 1278
924 315 1277 1278 1279
925 315 1278 1279 1280
926 315 1289 1290 1291
927 315 1289 1290 1305
928 315 1290 1291 1292
929 315 1290 1291 1296
930 315 1290 1305 1306
931 315 1291 1290 1305
932 315 1291 1292 1293
933 315 1291 1296 1295
934 315 1292 1291 1296
935 315 1292 1293 1294
936 315 1293 1294 1295
937 315 1294 1295 1296
938 315 1305 1306 1307
939 315 1305 1306 1321
940 315 1306 1307 1308
941 315 1306 1307 1312
942 315 1306 1321 1322
943 315 1307 1306 1321
944 315 1307 1308 1309
945 315 1307 1312 1311
946 315 1308 1307 1312
947 315 1308 1309 1310
948 315 1309 1310 1311
949 315 1310 1311 1312
950 315 1321 1322 1323
951 315 1321 1322 1337
952 315 1322 1323 1324
953 315 1322 1323 1328
954 315 1323 1322 1337
955 315 1323 1324 1325
956 315 1323 1328 1327
957 315 1324 1323 1328
958 315 1324 1325 1326
959 315 1325 1326 1327
960 315 1326 1327 1328
961 315 1345 1346 1347
962 315 1345 1346 1361
963 315 1346 1345 1509
964 315 1346 1347 1348
965 315 1346 1347 1352
966 315 1346 1361 1362
967 315 1347 1346 1361
968 315 1347 1348 1349
969 315 1347 1352 1351
970 315 1348 1347 1352
971 315 1348 1349 1350
972 315 1349 1350 1351
973 315 1350 1351 1352
974 315 1361 1362 1363
975 315 1361 1362 1377
976 315 1362 1363 1364
977 315 1362 1363 1368
978 315 1362 1377 1378
979 315 1363 1362 1377
980 315 1363 1364 1365
981 315 1363 1368 1367
982 315 1364 1363 1368
983 315 1364 1365 1366
984 315 1365 1366 1367
985 315 1366 1367 1368
986 315 1377 1378 1379
987 315 1377 1378 1393
988 315 1378 1379 1380
989 315 1378 1379 1384
990 315 1378 1393 1394
991 315 1379 1378 1393
992 315 1379 1380 1381
993 315 1379 1384 1383
994 315 1380 1379 1384
995 315 1380 1381 1382
996 315 1381 1382 1383
997 315 1382 1383 1384
998 315 1393 1394 1395
999 315 1393 1394 1409
1000 315 1394 1395 1396
1001 315 1394 1395 1400
1002 315 1394 1409 1410
1003 315 1395 1394 1409
1004 315 1395 1396 1397
1005 315 1395 1400 1399
1006 315 1396 1395 1400
1007 315 1396 1397 1398
1008 315 1397 1398 1399
1009 315 1398 1399 1400
1010 315 1409 1410 1411
1011 315 1409 1410 1425
1012 315 1410 1411 1412
1013 315 1410 1411 1416
1014 315 1410 1425 1426
1015 315 1411 1410 1425
1016 315 1411 1412 1413
1017 315 1411 1416 1415
1018 315 1412 1411 1416
1019 315 1412 1413 1414
1020 315 1413 1414 1415
1021 315 1414 1415 1416
1022 315 1425 1426 1427
1023 315 1425 1426 1441
1024 315 1426 1427 1428
1025 315 1426 1427 1432
1026 315 1426 1441 1442
1027 315 1427 1426 1441
1028 315 1427 1428 1429
1029 315 1427 1432 1431
1030 315 1428 1427 1432
1031 315 1428 1429 1430
1032 315 1429 1430 1431
1033 315 1430 1431 1432
1034 315 1441 1442 1443
1035 315 1441 1442 1457
1036 315 1442 1443 1444
1037 315 1442 1443 1448
1038 315 1442 1457 1458
1039 315 1443 1442 1457
1040 315 1443 1444 1445
1041 315 1443 1448 1447
1042 315 1444 1443 1448
1043 315 1444 1445 1446
1044 315 1445 1446 1447
1045 315 1446 1447 1448
1046 315 1457 1458 1459
1047 315 1457 1458 1473
1048 315 1458 1459 1460
1049 315 1458 1459 1464
1050 315 1458 1473 1474
1051 315 1459 1458 1473
1052 315 1459 1460 1461
1053 315 1459 1464 1463
1054 315 1460 1459 1464
1055 315 1460 1461 1462
1056 315 1461 1462 1463
1057 315 1462 1463 1464
1058 315 1473 1474 1475
1059 315 1473 1474 1489
1060 315 1474 1475 1476
1061 315 1474 1475 1480
1062 315 1474 1489 1490
1063 315 1475 1474 1489
1064 315 1475 1476 1477
1065 315 1475 1480 1479
1066 315 1476 1475 1480
1067 315 1476 1477 1478
1068 315 1477 1478 1479
1069 315 1478 1479 1480
1070 315 1489 1490 1491
1071 315 1489 1490 1505
1072 315 1490 1491 1492
1073 315 1490 1491 1496
1074 315 1491 1490 1505
1075 315 1491 1492 1493
1076 315 1491 1496 1495
1077 315 1492 1491 1496
1078 315 1492 1493 1494
1079 315 1493 1494 1495
1080 315 1494 1495 1496
1081 315 1513 1514 1515
1082 315 1513 1514 1529
1083 315 1514 1513 1677
1084 315 1514 1515 1516
1085 315 1514 1515 1520
1086 315 1514 1529 1530
1087 315 1515 1514 1529
1088 315 1515 1516 1517
1089 315 1515 1520 1519
1090 315 1516 1515 1520
1091 315 1516 1517 1518
1092 315 1517 1518 1519
1093 315 1518 1519 1520
1094 315 1529 1530 1531
1095 315 1529 1530 1545
1096 315 1530 1531 1532
1097 315 1530 1531 1536
1098 315 1530 1545 1546
1099 315 1531 1530 1545
1100 315 1531 1532 1533
1101 315 1531 1536 1535
1102 315 1532 1531 1536
1103 315 1532 1533 1534
1104 315 1533 1534 1535
1105 315 1534 1535 1536
1106 315 1545 1546 1547
1107 315 1545 1546 1561
1108 315 1546 1547 1548
1109 315 1546 1547 1552
1110 315 1546 1561 1562
1111 315 1547 1546 1561
1112 315 1547 1548 1549
1113 315 1547 1552 1551
1114 315 1548 1547 1552
1115 315 1548 1549 1550
1116 315 1549 1550 1551
1117 315 1550 1551 1552
1118 315 1561 1562 1563
1119 315 1561 1562 1577
1120 315 1562 1563 1564
1121 315 1562 1563 1568
1122 315 1562 1577 1578
1123 315 1563 1562 1577
1124 315 1563 1564 1565
1125 315 1563 1568 1567
1126 315 1564 1563 1568
1127 315 1564 1565 1566
1128 315 1565 1566 1567
1129 315 1566 1567 1568
1130 315 1577 1578 1579
1131 315 1577 1578 1593
1132 315 1578 1579 1580
1133 315 1578 1579 1584
1134 315 1578 1593 1594
1135 315 1579 1578 1593
1136 315 1579 1580 1581
1137 315 1579 1584 1583
1138 315 1580 1579 1584
1139 315 1580 1581 1582
1140 315 1581 1582 1583
1141 315 1582 1583 1584
1142 315 1593 1594 1595
1143 315 1593 1594 1609
1144 315 1594 1595 1596
1145 315 1594 1595 1600
1146 315 1594 1609 1610
1147 315 1595 1594 1609
1148 315 1595 1596 1597
1149 315 1595 1600 1599
1150 315 1596 1595 1600
1151 315 1596 1597 1598
1152 315 1597 1598 1599
1153 315 1598 1599 1600
1154 315 1609 1610 1611
1155 315 1609 1610 1625
1156 315 1610 1611 1612
1157 315 1610 1611 1616
1158 315 1610 1625 1626
1159 315 1611 1610 1625
1160 315 1611 1612 1613
1161 315 1611 1616 1615
1162 315 1612 1611 1616
1163 315 1612 1613 1614
1164 315 1613 1614 1615
1165 315 1614 1615 1616
1166 315 1625 1626 1627
1167 315 1625 1626 1641
1168 315 1626 1627 1628
1169 315 1626 1627 1632
1170 315 1626 1641 1642
1171 315 1627 1626 1641
1172 315 1627 1628 1629
1173 315 1627 1632 1631
1174 315 1628 1627 1632
1175 315 1628 1629 1630
1176 315 1629 1630 1631
1177 315 1630 1631 1632
1178 315 1641 1642 1643
1179 315 1641 1642 1657
1180 315 1642 1643 1644
1181 315 1642 1643 1648
1182 315 1642 1657 1658
1183 315 1643 1642 1657
1184 315 1643 1644 1645
1185 315 1643 1648 1647
1186 315 1644 1643 1648
1187 315 1644 1645 1646
1188 315 1645 1646 1647
1189 315 1646 1647 1648
1190 315 1657 1658 1659
1191 315 1657 1658 1673
1192 315 1658 1659 1660
1193 315 1658 1659 1664
1194 315 1659 1658 1673
1195 315 1659 1660 1661
1196 315 1659 1664 1663
1197 315 1660 1659 1664
1198 315 1660 1661 1662
1199 315 1661 1662 1663
1200 315 1662 1663 1664
1201 327 1 2 11
1202 327 1 165 166
1203 327 1 165 167
1204 327 1 165 168
1205 327 2 1 9
1206 327 2 1 10
1207 327 2 17 25
1208 327 2 17 26
1209 327 3 2 11
1210 327 3 4 12
1211 327 3 8 16
1212 327 4 5 13
1213 327 5 4 12
1214 327 5 6 14
1215 327 6 5 13
1216 327 6 7 15
1217 327 7 6 14
1218 327 7 8 16
1219 327 8 7 15
1220 327 11 2 17
1221 327 17 18 27
1222 327 18 17 25
1223 327 18 17 26
1224 327 18 33 41
1225 327 18 33 42
1226 327 19 18 27
1227 327 19 20 28
1228 327 19 24 32
1229 327 20 21 29
1230 327 21 20 28
1231 327 21 22 30
1232 327 22 21 29
1233 327 22 23 31
1234 327 23 22 30
1235 327 23 24 32
1236 327 24 23 31
1237 327 27 18 33
1238 327 33 34 43
1239 327 34 33 41
1240 327 34 33 42
1241 327 34 49 57
1242 327 34 49 58
1243 327 35 34 43
1244 327 35 36 44
1245 327 35 40 48
1246 327 36 37 45
1247 327 37 36 44
1248 327 37 38 46
1249 327 38 37 45
1250 327 38 39 47
1251 327 39 38 46
1252 327 39 40 48
1253 327 40 39 47
1254 327 43 34 49
1255 327 49 50 59
1256 327 50 49 57
1257 327 50 49 58
1258 327 50 65 73
1259 327 50 65 74
1260 327 51 50 59
1261 327 51 52 60
1262 327 51 56 64
1263 327 52 53 61
1264 327 53 52 60
1265 327 53 54 62
1266 327 54 53 61
1267 327 54 55 63
1268 327 55 54 62
1269 327 55 56 64
1270 327 56 55 63
1271 327 59 50 65
1272 327 65 66 75
1273 327 66 65 73
1274 327 66 65 74
1275 327 66 81 89
1276 327 66 81 90
1277 327 67 66 75
1278 327 67 68 76
1279 327 67 72 80
1280 327 68 69 77
1281 327 69 68 76
1282 327 69 70 78
1283 327 70 69 77
1284 327 70 71 79
1285 327 71 70 78
1286 327 71 72 80
1287 327 72 71 79
1288 327 75 66 81
1289 327 81 82 91
1290 327 82 81 89
1291 327 82 81 90
1292 327 82 97 105
1293 327 82 97 106
1294 327 83 82 91
1295 327 83 84 92
1296 327 83 88 96
1297 327 84 85 93
1298 327 85 84 92
1299 327 85 86 94
1300 327 86 85 93
1301 327 86 87 95
1302 327 87 86 94
1303 327 87 88 96
1304 327 88 87 95
1305 327 91 82 97
1306 327 97 98 107
1307 327 98 97 105
1308 327 98 97 106
1309 327 98 113 121
1310 327 98 113 122
1311 327 99 98 107
1312 327 99 100 108
1313 327 99 104 112
1314 327 100 101 109
1315 327 101 100 108
1316 327 101 102 110
1317 327 102 101 109
1318 327 102 103 111
1319 327 103 102 110
1320 327 103 104 112
1321 327 104 103 111
1322 327 107 98 113
1323 327 113 114 123
1324 327 114 113 121
1325 327 114 113 122
1326 327 114 129 137
1327 327 114 129 138
1328 327 115 114 123
1329 327 115 116 124
1330 327 115 120 128
1331 327 116 117 125
1332 327 117 116 124
1333 327 117 118 126
1334 327 118 117 125
1335 327 118 119 127
1336 327 119 118 126
1337 327 119 120 128
1338 327 120 119 127
1339 327 123 114 129
1340 327 129 130 139
1341 327 130 129 137
1342 327 130 129 138
1343 327 130 145 153
1344 327 130 145 154
1345 327 131 130 139
1346 327 131 132 140
1347 327 131 136 144
1348 327 132 133 141
1349 327 133 132 140
1350 327 133 134 142
1351 327 134 133 141
1352 327 134 135 143
1353 327 135 134 142
1354 327 135 136 144
1355 327 136 135 143
1356 327 139 130 145
1357 327 145 146 155
1358 327 146 145 153
1359 327 146 145 154
1360 327 146 161 162
1361 327 146 161 163
1362 327 146 161 164
1363 327 147 146 155
1364 327 147 148 156
1365 327 147 152 160
1366 327 148 149 157
1367 327 149 148 156
1368 327 149 150 158
1369 327 150 149 157
1370 327 150 151 159
1371 327 151 150 158
1372 327 151 152 160
1373 327 152 151 159
1374 327 155 146 161
1375 327 9 1 165
1376 327 10 1 165
1377 327 169 170 179
1378 327 169 333 334
1379 327 169 333 335
1380 327 169 333 336
1381 327 170 169 177
1382 327 170 169 178
1383 327 170 185 193
1384 327 170 185 194
1385 327 171 170 179
1386 327 171 172 180
1387 327 171 176 184
1388 327 172 173 181
1389 327 173 172 180
1390 327 173 174 182
1391 327 174 173 181
1392 327 174 175 183
1393 327 175 174 182
1394 327 175 176 184
1395 327 176 175 183
1396 327 179 170 185
1397 327 185 186 195
1398 327 186 185 193
1399 327 186 185 194
1400 327 186 201 209
1401 327 186 201 210
1402 327 187 186 195
1403 327 187 188 196
1404 327 187 192 200
1405 327 188 189 197
1406 327 189 188 196
1407 327 189 190 198
1408 327 190 189 197
1409 327 190 191 199
1410 327 191 190 198
1411 327 191 192 200
1412 327 192 191 199
1413 327 195 186 201
1414 327 201 202 211
1415 327 202 201 209
1416 327 202 201 210
1417 327 202 217 225
1418 327 202 217 226
1419 327 203 202 211
1420 327 203 204 212
1421 327 203 208 216
1422 327 204 205 213
1423 327 205 204 212
1424 327 205 206 214
1425 327 206 205 213
1426 327 206 207 215
1427 327 207 206 214
1428 327 207 208 216
1429 327 208 207 215
1430 327 211 202 217
1431 327 217 218 227
1432 327 218 217 225
1433 327 218 217 226
1434 327 218 233 241
1435 327 218 233 242
1436 327 219 218 227
1437 327 219 220 228
1438 327 219 224 232
1439 327 220 221 229
1440 327 221 220 228
1441 327 221 222 230
1442 327 222 221 229
1443 327 222 223 231
1444 327 223 222 230
1445 327 223 224 232
1446 327 224 223 231
1447 327 227 218 233
1448 327 233 234 243
1449 327 234 233 241
1450 327 234 233 242
1451 327 234 249 257
1452 327 234 249 258
1453 327 235 234 243
1454 327 235 236 244
1455 327 235 240 248
1456 327 236 237 245
1457 327 237 236 244
1458 327 237 238 246
1459 327 238 237 245
1460 327 238 239 247
1461 327 239 238 246
1462 327 239 240 248
1463 327 240 239 247
1464 327 243 234 249
1465 327 249 250 259
1466 327 250 249 257
1467 327 250 249 258
1468 327 250 265 273
1469 327 250 265 274
1470 327 251 250 259
1471 327 251 252 260
1472 327 251 256 264
1473 327 252 253 261
1474 327 253 252 260
1475 327 253 254 262
1476 327 254 253 261
1477 327 254 255 263
1478 327 255 254 262
1479 327 255 256 264
1480 327 256 255 263
1481 327 259 250 265
1482 327 265 266 275
1483 327 266 265 273
1484 327 266 265 274
1485 327 266 281 289
1486 327 266 281 290
1487 327 267 266 275
1488 327 267 268 276
1489 327 267 272 280
1490 327 268 269 277
1491 327 269 268 276
1492 327 269 270 278
1493 327 270 269 277
1494 327 270 271 279
1495 327 271 270 278
1496 327 271 272 280
1497 327 272 271 279
1498 327 275 266 281
1499 327 281 282 291
1500 327 282 281 289
1501 327 282 281 290
1502 327 282 297 305
1503 327 282 297 306
1504 327 283 282 291
1505 327 283 284 292
1506 327 283 288 296
1507 327 284 285 293
1508 327 285 284 292
1509 327 285 286 294
1510 327 286 285 293
1511 327 286 287 295
1512 327 287 286 294
1513 327 287 288 296
1514 327 288 287 295
1515 327 291 282 297
1516 327 297 298 307
1517 327 298 297 305
1518 327 298 297 306
1519 327 298 313 321
1520 327 298 313 322
1521 327 299 298 307
1522 327 299 300 308
1523 327 299 304 312
1524 327 300 301 309
1525 327 301 300 308
1526 327 301 302 310
1527 327 302 301 309
1528 327 302 303 311
1529 327 303 302 310
1530 327 303 304 312
1531 327 304 303 311
1532 327 307 298 313
1533 327 313 314 323
1534 327 314 313 321
1535 327 314 313 322
1536 327 314 329 330
1537 327 314 329 331
1538 327 314 329 332
1539 327 315 314 323
1540 327 315 316 324
1541 327 315 320 328
1542 327 316 317 325
1543 327 317 316 324
1544 327 317 318 326
1545 327 318 317 325
1546 327 318 319 327
1547 327 319 318 326
1548 327 319 320 328
1549 327 320 319 327
1550 327 323 314 329
1551 327 177 169 333
1552 327 178 169 333
1553 327 337 338 347
1554 327 337 501 502
1555 327 337 501 503
1556 327 337 501 504
1557 327 338 337 345
1558 327 338 337 346
1559 327 338 353 361
1560 327 338 353 362
1561 327 339 338 347
1562 327 339 340 348
1563 327 339 344 352
1564 327 340 341 349
1565 327 341 340 348
1566 327 341 342 350
1567 327 342 341 349
1568 327 342 343 351
1569 327 343 342 350
1570 327 343 344 352
1571 327 344 343 351
1572 327 347 338 353
1573 327 353 354 363
1574 327 354 353 361
1575 327 354 353 362
1576 327 354 369 377
1577 327 354 369 378
1578 327 355 354 363
1579 327 355 356 364
1580 327 355 360 368
1581 327 356 357 365
1582 327 357 356 364
1583 327 357 358 366
1584 327 358 357 365
1585 327 358 359 367
1586 327 359 358 366
1587 327 359 360 368
1588 327 360 359 367
1589 327 363 354 369
1590 327 369 370 379
1591 327 370 369 377
1592 327 370 369 378
1593 327 370 385 393
1594 327 370 385 394
1595 327 371 370 379
1596 327 371 372 380
1597 327 371 376 384
1598 327 372 373 381
1599 327 373 372 380
1600 327 373 374 382
1601 327 374 373 381
1602 327 374 375 383
1603 327 375 374 382
1604 327 375 376 384
1605 327 376 375 383
1606 327 379 370 385
1607 327 385 386 395
1608 327 386 385 393
1609 327 386 385 394
1610 327 386 401 409
1611 327 386 401 410
1612 327 387 386 395
1613 327 387 388 396
1614 327 387 392 400
1615 327 388 389 397
1616 327 389 388 396
1617 327 389 390 398
1618 327 390 389 397
1619 327 390 391 399
1620 327 391 390 398
1621 327 391 392 400
1622 327 392 391 399
1623 327 395 386 401
1624 327 401 402 411
1625 327 402 401 409
1626 327 402 401 410
1627 327 402 417 425
1628 327 402 417 426
1629 327 403 402 411
1630 327 403 404 412
1631 327 403 408 416
1632 327 404 405 413
1633 327 405 404 412
1634 327 405 406 414
1635 327 406 405 413
1636 327 406 407 415
1637 327 407 406 414
1638 327 407 408 416
1639 327 408 407 415
1640 327 411 402 417
1641 327 417 418 427
1642 327 418 417 425
1643 327 418 417 426
1644 327 418 433 441
1645 327 418 433 442
1646 327 419 418 427
1647 327 419 420 428
1648 327 419 424 432
1649 327 420 421 429
1650 327 421 420 428
1651 327 421 422 430
1652 327 422 421 429
1653 327 422 423 431
1654 327 423 422 430
1655 327 423 424 432
1656 327 424 423 431
1657 327 427 418 433
1658 327 433 434 443
1659 327 434 433 441
1660 327 434 433 442
1661 327 434 449 457
1662 327 434 449 458
1663 327 435 434 443
1664 327 435 436 444
1665 327 435 440 448
1666 327 436 437 445
1667 327 437 436 444
1668 327 437 438 446
1669 327 438 437 445
1670 327 438 439 447
1671 327 439 438 446
1672 327 439 440 448
1673 327 440 439 447
1674 327 443 434 449
1675 327 449 450 459
1676 327 450 449 457
1677 327 450 449 458
1678 327 450 465 473
1679 327 450 465 474
1680 327 451 450 459
1681 327 451 452 460
1682 327 451 456 464
1683 327 452 453 461
1684 327 453 452 460
1685 327 453 454 462
1686 327 454 453 461
1687 327 454 455 463
1688 327 455 454 462
1689 327 455 456 464
1690 327 456 455 463
1691 327 459 450 465
1692 327 465 466 475
1693 327 466 465 473
1694 327 466 465 474
1695 327 466 481 489
1696 327 466 481 490
1697 327 467 466 475
1698 327 467 468 476
1699 327 467 472 480
1700 327 468 469 477
1701 327 469 468 476
1702 327 469 470 478
1703 327 470 469 477
1704 327 470 471 479
1705 327 471 470 478
1706 327 471 472 480
1707 327 472 471 479
1708 327 475 466 481
1709 327 481 482 491
1710 327 482 481 489
1711 327 482 481 490
1712 327 482 497 498
1713 327 482 497 499
1714 327 482 497 500
1715 327 483 482 491
1716 327 483 484 492
1717 327 483 488 496
1718 327 484 485 493
1719 327 485 484 492
1720 327 485 486 494
1721 327 486 485 493
1722 327 486 487 495
1723 327 487 486 494
1724 327 487 488 496
1725 327 488 487 495
1726 327 491 482 497
1727 327 345 337 501
1728 327 346 337 501
1729 327 505 506 515
1730 327 505 669 670
1731 327 505 669 671
1732 327 505 669 672
1733 327 506 505 513
1734 327 506 505 514
1735 327 506 521 529
1736 327 506 521 530
1737 327 507 506 515
1738 327 507 508 516
1739 327 507 512 520
1740 327 508 509 517
1741 327 509 508 516
1742 327 509 510 518
1743 327 510 509 517
1744 327 510 511 519
1745 327 511 510 518
1746 327 511 512 520
1747 327 512 511 519
1748 327 515 506 521
1749 327 521 522 531
1750 327 522 521 529
1751 327 522 521 530
1752 327 522 537 545
1753 327 522 537 546
1754 327 523 522 531
1755 327 523 524 532
1756 327 523 528 536
1757 327 524 525 533
1758 327 525 524 532
1759 327 525 526 534
1760 327 526 525 533
1761 327 526 527 535
1762 327 527 526 534
1763 327 527 528 536
1764 327 528 527 535
1765 327 531 522 537
1766 327 537 538 547
1767 327 538 537 545
1768 327 538 537 546
1769 327 538 553 561
1770 327 538 553 562
1771 327 539 538 547
1772 327 539 540 548
1773 327 539 544 552
1774 327 540 541 549
1775 327 541 540 548
1776 327 541 542 550
1777 327 542 541 549
1778 327 542 543 551
1779 327 543 542 550
1780 327 543 544 552
1781 327 544 543 551
1782 327 547 538 553
1783 327 553 554 563
1784 327 554 553 561
1785 327 554 553 562
1786 327 554 569 577
1787 327 554 569 578
1788 327 555 554 563
1789 327 555 556 564
1790 327 555 560 568
1791 327 556 557 565
1792 327 557 556 564
1793 327 557 558 566
1794 327 558 557 565
1795 327 558 559 567
1796 327 559 558 566
1797 327 559 560 568
1798 327 560 559 567
1799 327 563 554 569
1800 327 569 570 579
1801 327 570 569 577
1802 327 570 569 578
1803 327 570 585 593
1804 327 570 585 594
1805 327 571 570 579
1806 327 571 572 580
1807 327 571 576 584
1808 327 572 573 581
1809 327 573 572 580
1810 327 573 574 582
1811 327 574 573 581
1812 327 574 575 583
1813 327 575 574 582
1814 327 575 576 584
1815 327 576 575 583
1816 327 579 570 585
1817 327 585 586 595
1818 327 586 585 593
1819 327 586 585 594
1820 327 586 601 609
1821 327 586 601 610
1822 327 587 586 595
1823 327 587 588 596
1824 327 587 592 600
1825 327 588 589 597
1826 327 589 588 596
1827 327 589 590 598
1828 327 590 589 597
1829 327 590 591 599
1830 327 591 590 598
1831 327 591 592 600
1832 327 592 591 599
1833 327 595 586 601
1834 327 601 602 611
1835 327 602 601 609
1836 327 602 601 610
1837 327 602 617 625
1838 327 602 617 626
1839 327 603 602 611
1840 327 603 604 612
1841 327 603 608 616
1842 327 604 605 613
1843 327 605 604 612
1844 327 605 606 614
1845 327 606 605 613
1846 327 606 607 615
1847 327 607 606 614
1848 327 607 608 616
1849 327 608 607 615
1850 327 611 602 617
1851 327 617 618 627
1852 327 618 617 625
1853 327 618 617 626
1854 327 618 633 641
1855 327 618 633 642
1856 327 619 618 627
1857 327 619 620 628
1858 327 619 624 632
1859 327 620 621 629
1860 327 621 620 628
1861 327 621 622 630
1862 327 622 621 629
1863 327 622 623 631
1864 327 623 622 630
1865 327 623 624 632
1866 327 624 623 631
1867 327 627 618 633
1868 327 633 634 643
1869 327 634 633 641
1870 327 634 633 642
1871 327 634 649 657
1872 327 634 649 658
1873 327 635 634 643
1874 327 635 636 644
1875 327 635 640 648
1876 327 636 637 645
1877 327 637 636 644
1878 327 637 638 646
1879 327 638 637 645
1880 327 638 639 647
1881 327 639 638 646
1882 327 639 640 648
1883 327 640 639 647
1884 327 643 634 649
1885 327 649 650 659
1886 327 650 649 657
1887 327 650 649 658
1888 327 650 665 666
1889 327 650 665 667
1890 327 650 665 668
1891 327 651 650 659
1892 327 651 652 660
1893 327 651 656 664
1894 327 652 653 661
1895 327 653 652 660
1896 327 653 654 662
1897 327 654 653 661
1898 327 654 655 663
1899 327 655 654 662
1900 327 655 656 664
1901 327 656 655 663
1902 327 659 650 665
1903 327 513 505 669
1904 327 514 505 669
1905 327 673 674 683
1906 327 673 837 838
1907 327 673 837 839
1908 327 673 837 840
1909 327 674 673 681
1910 327 674 673 682
1911 327 674 689 697
1912 327 674 689 698
1913 327 675 674 683
1914 327 675 676 684
1915 327 675 680 688
1916 327 676 677 685
1917 327 677 676 684
1918 327 677 678 686
1919 327 678 677 685
1920 327 678 679 687
1921 327 679 678 686
1922 327 679 680 688
1923 327 680 679 687
1924 327 683 674 689
1925 327 689 690 699
1926 327 690 689 697
1927 327 690 689 698
1928 327 690 705 713
1929 327 690 705 714
1930 327 691 690 699
1931 327 691 692 700
1932 327 691 696 704
1933 327 692 693 701
1934 327 693 692 700
1935 327 693 694 702
1936 327 694 693 701
1937 327 694 695 703
1938 327 695 694 702
1939 327 695 696 704
1940 327 696 695 703
1941 327 699 690 705
1942 327 705 706 715
1943 327 706 705 713
1944 327 706 705 714
1945 327 706 721 729
1946 327 706 721 730
1947 327 707 706 715
1948 327 707 708 716
1949 327 707 712 720
1950 327 708 709 717
1951 327 709 708 716
1952 327 709 710 718
1953 327 710 709 717
1954 327 710 711 719
1955 327 711 710 718
1956 327 711 712 720
1957 327 712 711 719
1958 327 715 706 721
1959 327 721 722 731
1960 327 722 721 729
1961 327 722 721 730
1962 327 722 737 745
1963 327 722 737 746
1964 327 723 722 731
1965 327 723 724 732
1966 327 723 728 736
1967 327 724 725 733
1968 327 725 724 732
1969 327 725 726 734
1970 327 726 725 733
1971 327 726 727 735
1972 327 727 726 734
1973 327 727 728 736
1974 327 728 727 735
1975 327 731 722 737
1976 327 737 738 747
1977 327 738 737 745
1978 327 738 737 746
1979 327 738 753 761
1980 327 738 753 762
1981 327 739 738 747
1982 327 739 740 748
1983 327 739 744 752
1984 327 740 741 749
1985 327 741 740 748
1986 327 741 742 750
1987 327 742 741 749
1988 327 742 743 751
1989 327 743 742 750
1990 327 743 744 752
1991 327 744 743 751
1992 327 747 738 753
1993 327 753 754 763
1994 327 754 753 761
1995 327 754 753 762
1996 327 754 769 777
1997 327 754 769 778
1998 327 755 754 763
1999 327 755 756 764
2000 327 755 760 768
2001 327 756 757 765
2002 327 757 756 764
2003 327 757 758 766
2004 327 758 757 765
2005 327 758 759 767
2006 327 759 758 766
2007 327 759 760 768
2008 327 760 759 767
2009 327 763 754 769
2010 327 769 770 779
2011 327 770 769 777
2012 327 770 769 778
2013 327 770 785 793
2014 327 770 785 794
2015 327 771 770 779
2016 327 771 772 780
2017 327 771 776 784
2018 327 772 773 781
2019 327 773 772 780
2020 327 773 774 782
2021 327 774 773 781
2022 327 774 775 783
2023 327 775 774 782
2024 327 775 776 784
2025 327 776 775 783
2026 327 779 770 785
2027 327 785 786 795
2028 327 786 785 793
2029 327 786 785 794
2030 327 786 801 809
2031 327 786 801 810
2032 327 787 786 795
2033 327 787 788 796
2034 327 787 792 800
2035 327 788 789 797
2036 327 789 788 796
2037 327 789 790 798
2038 327 790 789 797
2039 327 790 791 799
2040 327 791 790 798
2041 327 791 792 800
2042 327 792 791 799
2043 327 795 786 801
2044 327 801 802 811
2045 327 802 801 809
2046 327 802 801 810
2047 327 802 817 825
2048 327 802 817 826
2049 327 803 802 811
2050 327 803 804 812
2051 327 803 808 816
2052 327 804 805 813
2053 327 805 804 812
2054 327 805 806 814
2055 327 806 805 813
2056 327 806 807 815
2057 327 807 806 814
2058 327 807 808 816
2059 327 808 807 815
2060 327 811 802 817
2061 327 817 818 827
2062 327 818 817 825
2063 327 818 817 826
2064 327 818 833 834
2065 327 818 833 835
2066 327 818 833 836
2067 327 819 818 827
2068 327 819 820 828
2069 327 819 824 832
2070 327 820 821 829
2071 327 821 820 828
2072 327 821 822 830
2073 327 822 821 829
2074 327 822 823 831
2075 327 823 822 830
2076 327 823 824 832
2077 327 824 823 831
2078 327 827 818 833
2079 327 681 673 837
2080 327 682 673 837
2081 327 841 842 851
2082 327 841 1005 1006
2083 327 841 1005 1007
2084 327 841 1005 1008
2085 327 842 841 849
2086 327 842 841 850
2087 327 842 857 865
2088 327 842 857 866
2089 327 843 842 851
2090 327 843 844 852
2091 327 843 848 856
2092 327 844 845 853
2093 327 845 844 852
2094 327 845 846 854
2095 327 846 845 853
2096 327 846 847 855
2097 327 847 846 854
2098 327 847 848 856
2099 327 848 847 855
2100 327 851 842 857
2101 327 857 858 867
2102 327 858 857 865
2103 327 858 857 866
2104 327 858 873 881
2105 327 858 873 882
2106 327 859 858 867
2107 327 859 860 868
2108 327 859 864 872
2109 327 860 861 869
2110 327 861 860 868
2111 327 861 862 870
2112 327 862 861 869
2113 327 862 863 871
2114 327 863 862 870
2115 327 863 864 872
2116 327 864 863 871
2117 327 867 858 873
2118 327 873 874 883
2119 327 874 873 881
2120 327 874 873 882
2121 327 874 889 897
2122 327 874 889 898
2123 327 875 874 883
2124 327 875 876 884
2125 327 875 880 888
2126 327 876 877 885
2127 327 877 876 884
2128 327 877 878 886
2129 327 878 877 885
2130 327 878 879 887
2131 327 879 878 886
2132 327 879 880 888
2133 327 880 879 887
2134 327 883 874 889
2135 327 889 890 899
2136 327 890 889 897
2137 327 890 889 898
2138 327 890 905 913
2139 327 890 905 914
2140 327 891 890 899
2141 327 891 892 900
2142 327 891 896 904
2143 327 892 893 901
2144 327 893 892 900
2145 327 893 894 902
2146 327 894 893 901
2147 327 894 895 903
2148 327 895 894 902
2149 327 895 896 904
2150 327 896 895 903
2151 327 899 890 905
2152 327 905 906 915
2153 327 906 905 913
2154 327 906 905 914
2155 327 906 921 929
2156 327 906 921 930
2157 327 907 906 915
2158 327 907 908 916
2159 327 907 912 920
2160 327 908 909 917
2161 327 909 908 916
2162 327 909 910 918
2163 327 910 909 917
2164 327 910 911 919
2165 327 911 910 918
2166 327 911 912 920
2167 327 912 911 919
2168 327 915 906 921
2169 327 921 922 931
2170 327 922 921 929
2171 327 922 921 930
2172 327 922 937 945
2173 327 922 937 946
2174 327 923 922 931
2175 327 923 924 932
2176 327 923 928 936
2177 327 924 925 933
2178 327 925 924 932
2179 327 925 926 934
2180 327 926 925 933
2181 327 926 927 935
2182 327 927 926 934
2183 327 927 928 936
2184 327 928 927 935
2185 327 931 922 937
2186 327 937 938 947
2187 327 938 937 945
2188 327 938 937 946
2189 327 938 953 961
2190 327 938 953 962
2191 327 939 938 947
2192 327 939 940 948
2193 327 939 944 952
2194 327 940 941 949
2195 327 941 940 948
2196 327 941 942 950
2197 327 942 941 949
2198 327 942 943 951
2199 327 943 942 950
2200 327 943 944 952
2201 327 944 943 951
2202 327 947 938 953
2203 327 953 954 963
2204 327 954 953 961
2205 327 954 953 962
2206 327 954 969 977
2207 327 954 969 978
2208 327 955 954 963
2209 327 955 956 964
2210 327 955 960 968
2211 327 956 957 965
2212 327 957 956 964
2213 327 957 958 966
2214 327 958 957 965
2215 327 958 959 967
2216 327 959 958 966
2217 327 959 960 968
2218 327 960 959 967
2219 327 963 954 969
2220 327 969 970 979
2221 327 970 969 977
2222 327 970 969 978
2223 327 970 985 993
2224 327 970 985 994
2225 327 971 970 979
2226 327 971 972 980
2227 327 971 976 984
2228 327 972 973 981
2229 327 973 972 980
2230 327 973 974 982
2231 327 974 973 981
2232 327 974 975 983
2233 327 975 974 982
2234 327 975 976 984
2235 327 976 975 983
2236 327 979 970 985
2237 327 985 986 995
2238 327 986 985 993
2239 327 986 985 994
2240 327 986 1001 1002
2241 327 986 1001 1003
2242 327 986 1001 1004
2243 327 987 986 995
2244 327 987 988 996
2245 327 987 992 1000
2246 327 988 989 997
2247 327 989 988 996
2248 327 989 990 998
2249 327 990 989 997
2250 327 990 991 999
2251 327 991 990 998
2252 327 991 992 1000
2253 327 992 991 999
2254 327 995 986 1001
2255 327 849 841 1005
2256 327 850 841 1005
2257 327 1009 1010 1019
2258 327 1009 1173 1174
2259 327 1009 1173 1175
2260 327 1009 1173 1176
2261 327 1010 1009 1017
2262 327 1010 1009 1018
2263 327 1010 1025 1033
2264 327 1010 1025 1034
2265 327 1011 1010 1019
2266 327 1011 1012 1020
2267 327 1011 1016 1024
2268 327 1012 1013 1021
2269 327 1013 1012 1020
2270 327 1013 1014 1022
2271 327 1014 1013 1021
2272 327 1014 1015 1023
2273 327 1015 1014 1022
2274 327 1015 1016 1024
2275 327 1016 1015 1023
2276 327 1019 1010 1025
2277 327 1025 1026 1035
2278 327 1026 1025 1033
2279 327 1026 1025 1034
2280 327 1026 1041 1049
2281 327 1026 1041 1050
2282 327 1027 1026 1035
2283 327 1027 1028 1036
2284 327 1027 1032 1040
2285 327 1028 1029 1037
2286 327 1029 1028 1036
2287 327 1029 1030 1038
2288 327 1030 1029 1037
2289 327 1030 1031 1039
2290 327 1031 1030 1038
2291 327 1031 1032 1040
2292 327 1032 1031 1039
2293 327 1035 1026 1041
2294 327 1041 1042 1051
2295 327 1042 1041 1049
2296 327 1042 1041 1050
2297 327 1042 1057 1065
2298 327 1042 1057 1066
2299 327 1043 1042 1051
2300 327 1043 1044 1052
2301 327 1043 1048 1056
2302 327 1044 1045 1053
2303 327 1045 1044 1052
2304 327 1045 1046 1054
2305 327 1046 1045 1053
2306 327 1046 1047 1055
2307 327 1047 1046 1054
2308 327 1047 1048 1056
2309 327 1048 1047 1055
2310 327 1051 1042 1057
2311 327 1057 1058 1067
2312 327 1058 1057 1065
2313 327 1058 1057 1066
2314 327 1058 1073 1081
2315 327 1058 1073 1082
2316 327 1059 1058 1067
2317 327 1059 1060 1068
2318 327 1059 1064 1072
2319 327 1060 1061 1069
2320 327 1061 1060 1068
2321 327 1061 1062 1070
2322 327 1062 1061 1069
2323 327 1062 1063 1071
2324 327 1063 1062 1070
2325 327 1063 1064 1072
2326 327 1064 1063 1071
2327 327 1067 1058 1073
2328 327 1073 1074 1083
2329 327 1074 1073 1081
2330 327 1074 1073 1082
2331 327 1074 1089 1097
2332 327 1074 1089 1098
2333 327 1075 1074 1083
2334 327 1075 1076 1084
2335 327 1075 1080 1088
2336 327 1076 1077 1085
2337 327 1077 1076 1084
2338 327 1077 1078 1086
2339 327 1078 1077 1085
2340 327 1078 1079 1087
2341 327 1079 1078 1086
2342 327 1079 1080 1088
2343 327 1080 1079 1087
2344 327 1083 1074 1089
2345 327 1089 1090 1099
2346 327 1090 1089 1097
2347 327 1090 1089 1098
2348 327 1090 1105 1113
2349 327 1090 1105 1114
2350 327 1091 1090 1099
2351 327 1091 1092 1100
2352 327 1091 1096 1104
2353 327 1092 1093 1101
2354 327 1093 1092 1100
2355 327 1093 1094 1102
2356 327 1094 1093 1101
2357 327 1094 1095 1103
2358 327 1095 1094 1102
2359 327 1095 1096 1104
2360 327 1096 1095 1103
2361 327 1099 1090 1105
2362 327 1105 1106 1115
2363 327 1106 1105 1113
2364 327 1106 1105 1114
2365 327 1106 1121 1129
2366 327 1106 1121 1130
2367 327 1107 1106 1115
2368 327 1107 1108 1116
2369 327 1107 1112 1120
2370 327 1108 1109 1117
2371 327 1109 1108 1116
2372 327 1109 1110 1118
2373 327 1110 1109 1117
2374 327 1110 1111 1119
2375 327 1111 1110 1118
2376 327 1111 1112 1120
2377 327 1112 1111 1119
2378 327 1115 1106 1121
2379 327 1121 1122 1131
2380 327 1122 1121 1129
2381 327 1122 1121 1130
2382 327 1122 1137 1145
2383 327 1122 1137 1146
2384 327 1123 1122 1131
2385 327 1123 1124 1132
2386 327 1123 1128 1136
2387 327 1124 1125 1133
2388 327 1125 1124 1132
2389 327 1125 1126 1134
2390 327 1126 1125 1133
2391 327 1126 1127 1135
2392 327 1127 1126 1134
2393 327 1127 1128 1136
2394 327 1128 1127 1135
2395 327 1131 1122 1137
2396 327 1137 1138 1147
2397 327 1138 1137 1145
2398 327 1138 1137 1146
2399 327 1138 1153 1161
2400 327 1138 1153 1162
2401 327 1139 1138 1147
2402 327 1139 1140 1148
2403 327 1139 1144 1152
2404 327 1140 1141 1149
2405 327 1141 1140 1148
2406 327 1141 1142 1150
2407 327 1142 1141 1149
2408 327 1142 1143 1151
2409 327 1143 1142 1150
2410 327 1143 1144 1152
2411 327 1144 1143 1151
2412 327 1147 1138 1153
2413 327 1153 1154 1163
2414 327 1154 1153 1161
2415 327 1154 1153 1162
2416 327 1154 1169 1170
2417 327 1154 1169 1171
2418 327 1154 1169 1172
2419 327 1155 1154 1163
2420 327 1155 1156 1164
2421 327 1155 1160 1168
2422 327 1156 1157 1165
2423 327 1157 1156 1164
2424 327 1157 1158 1166
2425 327 1158 1157 1165
2426 327 1158 1159 1167
2427 327 1159 1158 1166
2428 327 1159 1160 1168
2429 327 1160 1159 1167
2430 327 1163 1154 1169
2431 327 1017 1009 1173
2432 327 1018 1009 1173
2433 327 1177 1178 1187
2434 327 1177 1341 1342
2435 327 1177 1341 1343
2436 327 1177 1341 1344
2437 327 1178 1177 1185
2438 327 1178 1177 1186
2439 327 1178 1193 1201
2440 327 1178 1193 1202
2441 327 1179 1178 1187
2442 327 1179 1180 1188
2443 327 1179 1184 1192
2444 327 1180 1181 1189
2445 327 1181 1180 1188
2446 327 1181 1182 1190
2447 327 1182 1181 1189
2448 327 1182 1183 1191
2449 327 1183 1182 1190
2450 327 1183 1184 1192
2451 327 1184 1183 1191
2452 327 1187 1178 1193
2453 327 1193 1194 1203
2454 327 1194 1193 1201
2455 327 1194 1193 1202
2456 327 1194 1209 1217
2457 327 1194 1209 1218
2458 327 1195 1194 1203
2459 327 1195 1196 1204
2460 327 1195 1200 1208
2461 327 1196 1197 1205
2462 327 1197 1196 1204
2463 327 1197 1198 1206
2464 327 1198 1197 1205
2465 327 1198 1199 1207
2466 327 1199 1198 1206
2467 327 1199 1200 1208
2468 327 1200 1199 1207
2469 327 1203 1194 1209
2470 327 1209 1210 1219
2471 327 1210 1209 1217
2472 327 1210 1209 1218
2473 327 1210 1225 1233
2474 327 1210 1225 1234
2475 327 1211 1210 1219
2476 327 1211 1212 1220
2477 327 1211 1216 1224
2478 327 1212 1213 1221
2479 327 1213 1212 1220
2480 327 1213 1214 1222
2481 327 1214 1213 1221
2482 327 1214 1215 1223
2483 327 1215 1214 1222
2484 327 1215 1216 1224
2485 327 1216 1215 1223
2486 327 1219 1210 1225
2487 327 1225 1226 1235
2488 327 1226 1225 1233
2489 327 1226 1225 1234
2490 327 1226 1241 1249
2491 327 1226 1241 1250
2492 327 1227 1226 1235
2493 327 1227 1228 1236
2494 327 1227 1232 1240
2495 327 1228 1229 1237
2496 327 1229 1228 1236
2497 327 1229 1230 1238
2498 327 1230 1229 1237
2499 327 1230 1231 1239
2500 327 1231 1230 1238
2501 327 1231 1232 1240
2502 327 1232 1231 1239
2503 327 1235 1226 1241
2504 327 1241 1242 1251
2505 327 1242 1241 1249
2506 327 1242 1241 1250
2507 327 1242 1257 1265
2508 327 1242 1257 1266
2509 327 1243 1242 1251
2510 327 1243 1244 1252
2511 327 1243 1248 1256
2512 327 1244 1245 1253
2513 327 1245 1244 1252
2514 327 1245 1246 1254
2515 327 1246 1245 1253
2516 327 1246 1247 1255
2517 327 1247 1246 1254
2518 327 1247 1248 1256
2519 327 1248 1247 1255
2520 327 1251 1242 1257
2521 327 1257 1258 1267
2522 327 1258 1257 1265
2523 327 1258 1257 1266
2524 327 1258 1273 1281
2525 327 1258 1273 1282
2526 327 1259 1258 1267
2527 327 1259 1260 1268
2528 327 1259 1264 1272
2529 327 1260 1261 1269
2530 327 1261 1260 1268
2531 327 1261 1262 1270
2532 327 1262 1261 1269
2533 327 1262 1263 1271
2534 327 1263 1262 1270
2535 327 1263 1264 1272
2536 327 1264 1263 1271
2537 327 1267 1258 1273
2538 327 1273 1274 1283
2539 327 1274 1273 1281
2540 327 1274 1273 1282
2541 327 1274 1289 1297
2542 327 1274 1289 1298
2543 327 1275 1274 1283
2544 327 1275 1276 1284
2545 327 1275 1280 1288
2546 327 1276 1277 1285
2547 327 1277 1276 1284
2548 327 1277 1278 1286
2549 327 1278 1277 1285
2550 327 1278 1279 1287
2551 327 1279 1278 1286
2552 327 1279 1280 1288
2553 327 1280 1279 1287
2554 327 1283 1274 1289
2555 327 1289 1290 1299
2556 327 1290 1289 1297
2557 327 1290 1289 1298
2558 327 1290 1305 1313
2559 327 1290 1305 1314
2560 327 1291 1290 1299
2561 327 1291 1292 1300
2562 327 1291 1296 1304
2563 327 1292 1293 1301
2564 327 1293 1292 1300
2565 327 1293 1294 1302
2566 327 1294 1293 1301
2567 327 1294 1295 1303
2568 327 1295 1294 1302
2569 327 1295 1296 1304
2570 327 1296 1295 1303
2571 327 1299 1290 1305
2572 327 1305 1306 1315
2573 327 1306 1305 1313
2574 327 1306 1305 1314
2575 327 1306 1321 1329
2576 327 1306 1321 1330
2577 327 1307 1306 1315
2578 327 1307 1308 1316
2579 327 1307 1312 1320
2580 327 1308 1309 1317
2581 327 1309 1308 1316
2582 327 1309 1310 1318
2583 327 1310 1309 1317
2584 327 1310 1311 1319
2585 327 1311 1310 1318
2586 327 1311 1312 1320
2587 327 1312 1311 1319
2588 327 1315 1306 1321
2589 327 1321 1322 1331
2590 327 1322 1321 1329
2591 327 1322 1321 1330
2592 327 1322 1337 1338
2593 327 1322 1337 1339
2594 327 1322 1337 1340
2595 327 1323 1322 1331
2596 327 1323 1324 1332
2597 327 1323 1328 1336
2598 327 1324 1325 1333
2599 327 1325 1324 1332
2600 327 1325 1326 1334
2601 327 1326 1325 1333
2602 327 1326 1327 1335
2603 327 1327 1326 1334
2604 327 1327 1328 1336
2605 327 1328 1327 1335
2606 327 1331 1322 1337
2607 327 1185 1177 1341
2608 327 1186 1177 1341
2609 327 1345 1346 1355
2610 327 1345 1509 1510
2611 327 1345 1509 1511
2612 327 1345 1509 1512
2613 327 1346 1345 1353
2614 327 1346 1345 1354
2615 327 1346 1361 1369
2616 327 1346 1361 1370
2617 327 1347 1346 1355
2618 327 1347 1348 1356
2619 327 1347 1352 1360
2620 327 1348 1349 1357
2621 327 1349 1348 1356
2622 327 1349 1350 1358
2623 327 1350 1349 1357
2624 327 1350 1351 1359
2625 327 1351 1350 1358
2626 327 1351 1352 1360
2627 327 1352 1351 1359
2628 327 1355 1346 1361
2629 327 1361 1362 1371
2630 327 1362 1361 1369
2631 327 1362 1361 1370
2632 327 1362 1377 1385
2633 327 1362 1377 1386
2634 327 1363 1362 1371
2635 327 1363 1364 1372
2636 327 1363 1368 1376
2637 327 1364 1365 1373
2638 327 1365 1364 1372
2639 327 1365 1366 1374
2640 327 1366 1365 1373
2641 327 1366 1367 1375
2642 327 1367 1366 1374
2643 327 1367 1368 1376
2644 327 1368 1367 1375
2645 327 1371 1362 1377
2646 327 1377 1378 1387
2647 327 1378 1377 1385
2648 327 1378 1377 1386
2649 327 1378 1393 1401
2650 327 1378 1393 1402
2651 327 1379 1378 1387
2652 327 1379 1380 1388
2653 327 1379 1384 1392
2654 327 1380 1381 1389
2655 327 1381 1380 1388
2656 327 1381 1382 1390
2657 327 1382 1381 1389
2658 327 1382 1383 1391
2659 327 1383 1382 1390
2660 327 1383 1384 1392
2661 327 1384 1383 1391
2662 327 1387 1378 1393
2663 327 1393 1394 1403
2664 327 1394 1393 1401
2665 327 1394 1393 1402
2666 327 1394 1409 1417
2667 327 1394 1409 1418
2668 327 1395 1394 1403
2669 327 1395 1396 1404
2670 327 1395 1400 1408
2671 327 1396 1397 1405
2672 327 1397 1396 1404
2673 327 1397 1398 1406
2674 327 1398 1397 1405
2675 327 1398 1399 1407
2676 327 1399 1398 1406
2677 327 1399 1400 1408
2678 327 1400 1399 1407
2679 327 1403 1394 1409
2680 327 1409 1410 1419
2681 327 1410 1409 1417
2682 327 1410 1409 1418
2683 327 1410 1425 1433
2684 327 1410 1425 1434
2685 327 1411 1410 1419
2686 327 1411 1412 1420
2687 327 1411 1416 1424
2688 327 1412 1413 1421
2689 327 1413 1412 1420
2690 327 1413 1414 1422
2691 327 1414 1413 1421
2692 327 1414 1415 1423
2693 327 1415 1414 1422
2694 327 1415 1416 1424
2695 327 1416 1415 1423
2696 327 1419 1410 1425
2697 327 1425 1426 1435
2698 327 1426 1425 1433
2699 327 1426 1425 1434
2700 327 1426 1441 1449
2701 327 1426 1441 1450
2702 327 1427 1426 1435
2703 327 1427 1428 1436
2704 327 1427 1432 1440
2705 327 1428 1429 1437
2706 327 1429 1428 1436
2707 327 1429 1430 1438
2708 327 1430 1429 1437
2709 327 1430 1431 1439
2710 327 1431 1430 1438
2711 327 1431 1432 1440
2712 327 1432 1431 1439
2713 327 1435 1426 1441
2714 327 1441 1442 1451
2715 327 1442 1441 1449
2716 327 1442 1441 1450
2717 327 1442 1457 1465
2718 327 1442 1457 1466
2719 327 1443 1442 1451
2720 327 1443 1444 1452
2721 327 1443 1448 1456
2722 327 1444 1445 1453
2723 327 1445 1444 1452
2724 327 1445 1446 1454
2725 327 1446 1445 1453
2726 327 1446 1447 1455
2727 327 1447 1446 1454
2728 327 1447 1448 1456
2729 327 1448 1447 1455
2730 327 1451 1442 1457
2731 327 1457 1458 1467
2732 327 1458 1457 1465
2733 327 1458 1457 1466
2734 327 1458 1473 1481
2735 327 1458 1473 1482
2736 327 1459 1458 1467
2737 327 1459 1460 1468
2738 327 1459 1464 1472
2739 327 1460 1461 1469
2740 327 1461 1460 1468
2741 327 1461 1462 1470
2742 327 1462 1461 1469
2743 327 1462 1463 1471
2744 327 1463 1462 1470
2745 327 1463 1464 1472
2746 327 1464 1463 1471
2747 327 1467 1458 1473
2748 327 1473 1474 1483
2749 327 1474 1473 1481
2750 327 1474 1473 1482
2751 327 1474 1489 1497
2752 327 1474 1489 1498
2753 327 1475 1474 1483
2754 327 1475 1476 1484
2755 327 1475 1480 1488
2756 327 1476 1477 1485
2757 327 1477 1476 1484
2758 327 1477 1478 1486
2759 327 1478 1477 1485
2760 327 1478 1479 1487
2761 327 1479 1478 1486
2762 327 1479 1480 1488
2763 327 1480 1479 1487
2764 327 1483 1474 1489
2765 327 1489 1490 1499
2766 327 1490 1489 1497
2767 327 1490 1489 1498
2768 327 1490 1505 1506
2769 327 1490 1505 1507
2770 327 1490 1505 1508
2771 327 1491 1490 1499
2772 327 1491 1492 1500
2773 327 1491 1496 1504
2774 327 1492 1493 1501
2775 327 1493 1492 1500
2776 327 1493 1494 1502
2777 327 1494 1493 1501
2778 327 1494 1495 1503
2779 327 1495 1494 1502
2780 327 1495 1496 1504
2781 327 1496 1495 1503
2782 327 1499 1490 1505
2783 327 1353 1345 1509
2784 327 1354 1345 1509
2785 327 1513 1514 1523
2786 327 1513 1677 1678
2787 327 1513 1677 1679
2788 327 1513 1677 1680
2789 327 1514 1513 1521
2790 327 1514 1513 1522
2791 327 1514 1529 1537
2792 327 1514 1529 1538
2793 327 1515 1514 1523
2794 327 1515 1516 1524
2795 327 1515 1520 1528
2796 327 1516 1517 1525
2797 327 1517 1516 1524
2798 327 1517 1518 1526
2799 327 1518 1517 1525
2800 327 1518 1519 1527
2801 327 1519 1518 1526
2802 327 1519 1520 1528
2803 327 1520 1519 1527
2804 327 1523 1514 1529
2805 327 1529 1530 1539
2806 327 1530 1529 1537
2807 327 1530 1529 1538
2808 327 1530 1545 1553
2809 327 1530 1545 1554
2810 327 1531 1530 1539
2811 327 1531 1532 1540
2812 327 1531 1536 1544
2813 327 1532 1533 1541
2814 327 1533 1532 1540
2815 327 1533 1534 1542
2816 327 1534 1533 1541
2817 327 1534 1535 1543
2818 327 1535 1534 1542
2819 327 1535 1536 1544
2820 327 1536 1535 1543
2821 327 1539 1530 1545
2822 327 1545 1546 1555
2823 327 1546 1545 1553
2824 327 1546 1545 1554
2825 327 1546 1561 1569
2826 327 1546 1561 1570
2827 327 1547 1546 1555
2828 327 1547 1548 1556
2829 327 1547 1552 1560
2830 327 1548 1549 1557
2831 327 1549 1548 1556
2832 327 1549 1550 1558
2833 327 1550 1549 1557
2834 327 1550 1551 1559
2835 327 1551 1550 1558
2836 327 1551 1552 1560
2837 327 1552 1551 1559
2838 327 1555 1546 1561
2839 327 1561 1562 1571
2840 327 1562 1561 1569
2841 327 1562 1561 1570
2842 327 1562 1577 1585
2843 327 1562 1577 1586
2844 327 1563 1562 1571
2845 327 1563 1564 1572
2846 327 1563 1568 1576
2847 327 1564 1565 1573
2848 327 1565 1564 1572
2849 327 1565 1566 1574
2850 327 1566 1565 1573
2851 327 1566 1567 1575
2852 327 1567 1566 1574
2853 327 1567 1568 1576
2854 327 1568 1567 1575
2855 327 1571 1562 1577
2856 327 1577 1578 1587
2857 327 1578 1577 1585
2858 327 1578 1577 1586
2859 327 1578 1593 1601
2860 327 1578 1593 1602
2861 327 1579 1578 1587
2862 327 1579 1580 1588
2863 327 1579 1584 1592
2864 327 1580 1581 1589
2865 327 1581 1580 1588
2866 327 1581 1582 1590
2867 327 1582 1581 1589
2868 327 1582 1583 1591
2869 327 1583 1582 1590
2870 327 1583 1584 1592
2871 327 1584 1583 1591
2872 327 1587 1578 1593
2873 327 1593 1594 1603
2874 327 1594 1593 1601
2875 327 1594 1593 1602
2876 327 1594 1609 1617
2877 327 1594 1609 1618
2878 327 1595 1594 1603
2879 327 1595 1596 1604
2880 327 1595 1600 1608
2881 327 1596 1597 1605
2882 327 1597 1596 1604
2883 327 1597 1598 1606
2884 327 1598 1597 1605
2885 327 1598 1599 1607
2886 327 1599 1598 1606
2887 327 1599 1600 1608
2888 327 1600 1599 1607
2889 327 1603 1594 1609
2890 327 1609 1610 1619
2891 327 1610 1609 1617
2892 327 1610 1609 1618
2893 327 1610 1625 1633
2894 327 1610 1625 1634
2895 327 1611 1610 1619
2896 327 1611 1612 1620
2897 327 1611 1616 1624
2898 327 1612 1613 1621
2899 327 1613 1612 1620
2900 327 1613 1614 1622
2901 327 1614 1613 1621
2902 327 1614 1615 1623
2903 327 1615 1614 1622
2904 327 1615 1616 1624
2905 327 1616 1615 1623
2906 327 1619 1610 1625
2907 327 1625 1626 1635
2908 327 1626 1625 1633
2909 327 1626 1625 1634
2910 327 1626 1641 1649
2911 327 1626 1641 1650
2912 327 1627 1626 1635
2913 327 1627 1628 1636
2914 327 1627 1632 1640
2915 327 1628 1629 1637
2916 327 1629 1628 1636
2917 327 1629 1630 1638
2918 327 1630 1629 1637
2919 327 1630 1631 1639
2920 327 1631 1630 1638
2921 327 1631 1632 1640
2922 327 1632 1631 1639
2923 327 1635 1626 1641
2924 327 1641 1642 1651
2925 327 1642 1641 1649
2926 327 1642 1641 1650
2927 327 1642 1657 1665
2928 327 1642 1657 1666
2929 327 1643 1642 1651
2930 327 1643 1644 1652
2931 327 1643 1648 1656
2932 327 1644 1645 1653
2933 327 1645 1644 1652
2934 327 1645 1646 1654
2935 327 1646 1645 1653
2936 327 1646 1647 1655
2937 327 1647 1646 1654
2938 327 1647 1648 1656
2939 327 1648 1647 1655
2940 327 1651 1642 1657
2941 327 1657 1658 1667
2942 327 1658 1657 1665
2943 327 1658 1657 1666
2944 327 1658 1673 1674
2945 327 1658 1673 1675
2946 327 1658 1673 1676
2947 327 1659 1658 1667
2948 327 1659 1660 1668
2949 327 1659 1664 1672
2950 327 1660 1661 1669
2951 327 1661 1660 1668
2952 327 1661 1662 1670
2953 327 1662 1661 1669
2954 327 1662 1663 1671
2955 327 1663 1662 1670
2956 327 1663 1664 1672
2957 327 1664 1663 1671
2958 327 1667 1658 1673
2959 327 1521 1513 1677
2960 327 1522 1513 1677
2961 520 9 1 10
2962 520 25 17 26
2963 520 41 33 42
2964 520 57 49 58
2965 520 73 65 74
2966 520 89 81 90
2967 520 105 97 106
2968 520 121 113 122
2969 520 137 129 138
2970 520 153 145 154
2971 520 162 161 163
2972 520 162 161 164
2973 520 163 161 164
2974 520 166 165 167
2975 520 166 165 168
2976 520 167 165 168
2977 520 177 169 178
2978 520 193 185 194
2979 520 209 201 210
2980 520 225 217 226
2981 520 241 233 242
2982 520 257 249 258
2983 520 273 265 274
2984 520 289 281 290
2985 520 305 297 306
2986 520 321 313 322
2987 520 330 329 331
2988 520 330 329 332
2989 520 331 329 332
2990 520 334 333 335
2991 520 334 333 336
2992 520 335 333 336
2993 520 345 337 346
2994 520 361 353 362
2995 520 377 369 378
2996 520 393 385 394
2997 520 409 401 410
2998 520 425 417 426
2999 520 441 433 442
3000 520 457 449 458
3001 520 473 465 474
3002 520 489 481 490
3003 520 498 497 499
3004 520 498 497 500
3005 520 499 497 500
3006 520 502 501 503
3007 520 502 501 504
3008 520 503 501 504
3009 520 513 505 514
3010 520 529 521 530
3011 520 545 537 546
3012 520 561 553 562
3013 520 577 569 578
3014 520 593 585 594
3015 520 609 601 610
3016 520 625 617 626
3017 520 641 633 642
3018 520 657 649 658
3019 520 666 665 667
3020 520 666 665 668
3021 520 667 665 668
3022 520 670 669 671
3023 520 670 669 672
3024 520 671 669 672
3025 520 681 673 682
3026 520 697 689 698
3027 520 713 705 714
3028 520 729 721 730
3029 520 745 737 746
3030 520 761 753 762
3031 520 777 769 778
3032 520 793 785 794
3033 520 809 801 810
3034 520 825 817 826
3035 520 834 833 835
3036 520 834 833 836
3037 520 835 833 836
3038 520 838 837 839
3039 520 838 837 840
3040 520 839 837 840
3041 520 849 841 850
3042 520 865 857 866
3043 520 881 873 882
3044 520 897 889 898
3045 520 913 905 914
3046 520 929 921 930
3047 520 945 937 946
3048 520 961 953 962
3049 520 977 969 978
3050 520 993 985 994
3051 520 1002 1001 1003
3052 520 1002 1001 1004
3053 520 1003 1001 1004
3054 520 1006 1005 1007
3055 520 1006 1005 1008
3056 520 1007 1005 1008
3057 520 1017 1009 1018
3058 520 1033 1025 1034
3059 520 1049 1041 1050
3060 520 1065 1057 1066
3061 520 1081 1073 1082
3062 520 1097 1089 1098
3063 520 1113 1105 1114
3064 520 1129 1121 1130
3065 520 1145 1137 1146
3066 520 1161 1153 1162
3067 520 1170 1169 1171
3068 520 1170 1169 1172
3069 520 1171 1169 1172
3070 520 1174 1173 1175
3071 520 1174 1173 1176
3072 520 1175 1173 1176
3073 520 1185 1177 1186
3074 520 1201 1193 1202
3075 520 1217 1209 1218
3076 520 1233 1225 1234
3077 520 1249 1241 1250
3078 520 1265 1257 1266
3079 520 1281 1273 1282
3080 520 1297 1289 1298
3081 520 1313 1305 1314
3082 520 1329 1321 1330
3083 520 1338 1337 1339
3084 520 1338 1337 1340
3085 520 1339 1337 1340
3086 520 1342 1341 1343
3087 520 1342 1341 1344
3088 520 1343 1341 1344
3089 520 1353 1345 1354
3090 520 1369 1361 1370
3091 520 1385 1377 1386
3092 520 1401 1393 1402
3093 520 1417 1409 1418
3094 520 1433 1425 1434
3095 520 1449 1441 1450
3096 520 1465 1457 1466
3097 520 1481 1473 1482
3098 520 1497 1489 1498
3099 520 1506 1505 1507
3100 520 1506 1505 1508
3101 520 1507 1505 1508
3102 520 1510 1509 1511
3103 520 1510 1509 1512
3104 520 1511 1509 1512
3105 520 1521 1513 1522
3106 520 1537 1529 1538
3107 520 1553 1545 1554
3108 520 1569 1561 1570
3109 520 1585 1577 1586
3110 520 1601 1593 1602
3111 520 1617 1609 1618
3112 520 1633 1625 1634
3113 520 1649 1641 1650
3114 520 1665 1657 1666
3115 520 1674 1673 1675
3116 520 1674 1673 1676
3117 520 1675 1673 1676
3118 520 1678 1677 1679
3119 520 1678 1677 1680
3120 520 1679 1677 1680

Dihedrals

1 623 1 2 3 4
2 623 1 2 3 8
3 623 1 2 17 18
4 623 2 3 4 5
5 623 2 3 8 7
6 623 2 17 18 19
7 623 2 17 18 33
8 623 3 2 1 165
9 623 3 2 17 18
10 623 3 4 5 6
11 623 3 8 7 6
12 623 4 3 2 17
13 623 4 3 8 7
14 623 4 5 6 7
15 623 5 4 3 8
16 623 5 6 7 8
17 623 8 3 2 17
18 623 17 2 1 165
19 623 17 18 19 20
20 623 17 18 19 24
21 623 17 18 33 34
22 623 18 19 20 21
23 623 18 19 24 23
24 623 18 33 34 35
25 623 18 33 34 49
26 623 19 18 33 34
27 623 19 20 21 22
28 623 19 24 23 22
29 623 20 19 18 33
30 623 20 19 24 23
31 623 20 21 22 23
32 623 21 20 19 24
33 623 21 22 23 24
34 623 24 19 18 33
35 623 33 34 35 36
36 623 33 34 35 40
37 623 33 34 49 50
38 623 34 35 36 37
39 623 34 35 40 39
40 623 34 49 50 51
41 623 34 49 50 65
42 623 35 34 49 50
43 623 35 36 37 38
44 623 35 40 39 38
45 623 36 35 34 49
46 623 36 35 40 39
47 623 36 37 38 39
48 623 37 36 35 40
49 623 37 38 39 40
50 623 40 35 34 49
51 623 49 50 51 52
52 623 49 50 51 56
53 623 49 50 65 66
54 623 50 51 52 53
55 623 50 51 56 55
56 623 50 65 66 67
57 623 50 65 66 81
58 623 51 50 65 66
59 623 51 52 53 54
60 623 51 56 55 54
61 623 52 51 50 65
62 623 52 51 56 55
63 623 52 53 54 55
64 623 53 52 51 56
65 623 53 54 55 56
66 623 56 51 50 65
67 623 65 66 67 68
68 623 65 66 67 72
69 623 65 66 81 82
70 623 66 67 68 69
71 623 66 67 72 71
72 623 66 81 82 83
73 623 66 81 82 97
74 623 67 66 81 82
75 623 67 68 69 70
76 623 67 72 71 70
77 623 68 67 66 81
78 623 68 67 72 71
79 623 68 69 70 71
80 623 69 68 67 72
81 623 69 70 71 72
82 623 72 67 66 81
83 623 81 82 83 84
84 623 81 82 83 88
85 623 81 82 97 98
86 623 82 83 84 85
87 623 82 83 88 87
88 623 82 97 98 99
89 623 82 97 98 113
90 623 83 82 97 98
91 623 83 84 85 86
92 623 83 88 87 86
93 623 84 83 82 97
94 623 84 83 88 87
95 623 84 85 86 87
96 623 85 84 83 88
97 623 85 86 87 88
98 623 88 83 82 97
99 623 97 98 99 100
100 623 97 98 99 104
101 623 97 98 113 114
102 623 98 99 100 101
103 623 98 99 104 103
104 623 98 113 114 115
105 623 98 113 114 129
106 623 99 98 113 114
107 623 99 100 101 102
108 623 99 104 103 102
109 623 100 99 98 113
110 623 100 99 104 103
111 623 100 101 102 103
112 623 101 100 99 104
113 623 101 102 103 104
114 623 104 99 98 113
115 623 113 114 115 116
116 623 113 114 115 120
117 623 113 114 129 130
118 623 114 115 116 117
119 623 114 115 120 119
120 623 114 129 130 131
121 623 114 129 130 145
122 623 115 114 129 130
123 623 115 116 117 118
124 623 115 120 119 118
125 623 116 115 114 129
126 623 116 115 120 119
127 623 116 117 118 119
128 623 117 116 115 120
129 623 117 118 119 120
130 623 120 115 114 129
131 623 129 130 131 132
132 623 129 130 131 136
133 623 129 130 145 146
134 623 130 131 132 133
135 623 130 131 136 135
136 623 130 145 146 147
137 623 130 145 146 161
138 623 131 130 145 146
139 623 131 132 133 134
140 623 131 136 135 134
141 623 132 131 130 145
142 623 132 131 136 135
143 623 132 133 134 135
144 623 133 132 131 136
145 623 133 134 135 136
146 623 136 131 130 145
147 623 145 146 147 148
148 623 145 146 147 152
149 623 146 147 148 149
150 623 146 147 152 151
151 623 147 148 149 150
152 623 147 152 151 150
153 623 148 147 146 161
154 623 148 147 152 151
155 623 148 149 150 151
156 623 149 148 147 152
157 623 149 150 151 152
158 623 152 147 146 161
159 623 169 170 171 172
160 623 169 170 171 176
161 623 169 170 185 186
162 623 170 171 172 173
163 623 170 171 176 175
164 623 170 185 186 187
165 623 170 185 186 201
166 623 171 170 169 333
167 623 171 170 185 186
168 623 171 172 173 174
169 623 171 176 175 174
170 623 172 171 170 185
171 623 172 171 176 175
172 623 172 173 174 175
173 623 173 172 171 176
174 623 173 174 175 176
175 623 176 171 170 185
176 623 185 170 169 333
177 623 185 186 187 188
178 623 185 186 187 192
179 623 185 186 201 202
180 623 186 187 188 189
181 623 186 187 192 191
182 623 186 201 202 203
183 623 186 201 202 217
184 623 187 186 201 202
185 623 187 188 189 190
186 623 187 192 191 190
187 623 188 187 186 201
188 623 188 187 192 191
189 623 188 189 190 191
190 623 189 188 187 192
191 623 189 190 191 192
192 623 192 187 186 201
193 623 201 202 203 204
194 623 201 202 203 208
195 623 201 202 217 218
196 623 202 203 204 205
197 623 202 203 208 207
198 623 202 217 218 219
199 623 202 217 218 233
200 623 203 202 217 218
201 623 203 204 205 206
202 623 203 208 207 206
203 623 204 203 202 217
204 623 204 203 208 207
205 623 204 205 206 207
206 623 205 204 203 208
207 623 205 206 207 208
208 623 208 203 202 217
209 623 217 218 219 220
210 623 217 218 219 224
211 623 217 218 233 234
212 623 218 219 220 221
213 623 218 219 224 223
214 623 218 233 234 235
215 623 218 233 234 249
216 623 219 218 233 234
217 623 219 220 221 222
218 623 219 224 223 222
219 623 220 219 218 233
220 623 220 219 224 223
221 623 220 221 222 223
222 623 221 220 219 224
223 623 221 222 223 224
224 623 224 219 218 233
225 623 233 234 235 236
226 623 233 234 235 240
227 623 233 234 249 250
228 623 234 235 236 237
229 623 234 235 240 239
230 623 234 249 250 251
231 623 234 249 250 265
232 623 235 234 249 250
233 623 235 236 237 238
234 623 235 240 239 238
235 623 236 235 234 249
236 623 236 235 240 239
237 623 236 237 238 239
238 623 237 236 235 240
239 623 237 238 239 240
240 623 240 235 234 249
241 623 249 250 251 252
242 623 249 250 251 256
243 623 249 250 265 266
244 623 250 251 252 253
245 623 250 251 256 255
246 623 250 265 266 267
247 623 250 265 266 281
248 623 251 250 265 266
249 623 251 252 253 254
250 623 251 256 255 254
251 623 252 251 250 265
252 623 252 251 256 255
253 623 252 253 254 255
254 623 253 252 251 256
255 623 253 254 255 256
256 623 256 251 250 265
257 623 265 266 267 268
258 623 265 266 267 272
259 623 265 266 281 282
260 623 266 267 268 269
261 623 266 267 272 271
262 623 266 281 282 283
263 623 266 281 282 297
264 623 267 266 281 282
265 623 267 268 269 270
266 623 267 272 271 270
267 623 268 267 266 281
268 623 268 267 272 271
269 623 268 269 270 271
270 623 269 268 267 272
271 623 269 270 271 272
272 623 272 267 266 281
273 623 281 282 283 284
274 623 281 282 283 288
275 623 281 282 297 298
276 623 282 283 284 285
277 623 282 283 288 287
278 623 282 297 298 299
279 623 282 297 298 313
280 623 283 282 297 298
281 623 283 284 285 286
282 623 283 288 287 286
283 623 284 283 282 297
284 623 284 283 288 287
285 623 284 285 286 287
286 623 285 284 283 288
287 623 285 286 287 288
288 623 288 283 282 297
289 623 297 298 299 300
290 623 297 298 299 304
291 623 297 298 313 314
292 623 298 299 300 301
293 623 298 299 304 303
294 623 298 313 314 315
295 623 298 313 314 329
296 623 299 298 313 314
297 623 299 300 301 302
298 623 299 304 303 302
299 623 300 299 298 313
300 623 300 299 304 303
301 623 300 301 302 303
302 623 301 300 299 304
303 623 301 302 303 304
304 623 304 299 298 313
305 623 313 314 315 316
306 623 313 314 315 320
307 623 314 315 316 317
308 623 314 315 320 319
309 623 315 316 317 318
310 623 315 320 319 318
311 623 316 315 314 329
312 623 316 315 320 319
313 623 316 317 318 319
314 623 317 316 315 320
315 623 317 318 319 320
316 623 320 315 314 329
317 623 337 338 339 340
318 623 337 338 339 344
319 623 337 338 353 354
320 623 338 339 340 341
321 623 338 339 344 343
322 623 338 353 354 355
323 623 338 353 354 369
324 623 339 338 337 501
325 623 339 338 353 354
326 623 339 340 341 342
327 623 339 344 343 342
328 623 340 339 338 353
329 623 340 339 344 343
330 623 340 341 342 343
331 623 341 340 339 344
332 623 341 342 343 344
333 623 344 339 338 353
334 623 353 338 337 501
335 623 353 354 355 356
336 623 353 354 355 360
337 623 353 354 369 370
338 623 354 355 356 357
339 623 354 355 360 359
340 623 354 369 370 371
341 623 354 369 370 385
342 623 355 354 369 370
343 623 355 356 357 358
344 623 355 360 359 358
345 623 356 355 354 369
346 623 356 355 360 359
347 623 356 357 358 359
348 623 357 356 355 360
349 623 357 358 359 360
350 623 360 355 354 369
351 623 369 370 371 372
352 623 369 370 371 376
353 623 369 370 385 386
354 623 370 371 372 373
355 623 370 371 376 375
356 623 370 385 386 387
357 623 370 385 386 401
358 623 371 370 385 386
359 623 371 372 373 374
360 623 371 376 375 374
361 623 372 371 370 385
362 623 372 371 376 375
363 623 372 373 374 375
364 623 373 372 371 376
365 623 373 374 375 376
366 623 376 371 370 385
367 623 385 386 387 388
368 623 385 386 387 392
369 623 385 386 401 402
370 623 386 387 388 389
371 623 386 387 392 391
372 623 386 401 402 403
373 623 386 401 402 417
374 623 387 386 401 402
375 623 387 388 389 390
376 623 387 392 391 390
377 623 388 387 386 401
378 623 388 387 392 391
379 623 388 389 390 391
380 623 389 388 387 392
381 623 389 390 391 392
382 623 392 387 386 401
383 623 401 402 403 404
384 623 401 402 403 408
385 623 401 402 417 418
386 623 402 403 404 405
387 623 402 403 408 407
388 623 402 417 418 419
389 623 402 417 418 433
390 623 403 402 417 418
391 623 403 404 405 406
392 623 403 408 407 406
393 623 404 403 402 417
394 623 404 403 408 407
395 623 404 405 406 407
396 623 405 404 403 408
397 623 405 406 407 408
398 623 408 403 402 417
399 623 417 418 419 420
400 623 417 418 419 424
401 623 417 418 433 434
402 623 418 419 420 421
403 623 418 419 424 423
404 623 418 433 434 435
405 623 418 433 434 449
406 623 419 418 433 434
407 623 419 420 421 422
408 623 419 424 423 422
409 623 420 419 418 433
410 623 420 419 424 423
411 623 420 421 422 423
412 623 421 420 419 424
413 623 421 422 423 424
414 623 424 419 418 433
415 623 433 434 435 436
416 623 433 434 435 440
417 623 433 434 449 450
418 623 434 435 436 437
419 623 434 435 440 439
420 623 434 449 450 451
421 623 434 449 450 465
422 623 435 434 449 450
423 623 435 436 437 438
424 623 435 440 439 438
425 623 436 435 434 449
426 623 436 435 440 439
427 623 436 437 438 439
428 623 437 436 435 440
429 623 437 438 439 440
430 623 440 435 434 449
431 623 449 450 451 452
432 623 449 450 451 456
433 623 449 450 465 466
434 623 450 451 452 453
435 623 450 451 456 455
436 623 450 465 466 467
437 623 450 465 466 481
438 623 451 450 465 466
439 623 451 452 453 454
440 623 451 456 455 454
441 623 452 451 450 465
442 623 452 451 456 455
443 623 452 453 454 455
444 623 453 452 451 456
445 623 453 454 455 456
446 623 456 451 450 465
447 623 465 466 467 468
448 623 465 466 467 472
449 623 465 466 481 482
450 623 466 467 468 469
451 623 466 467 472 471
452 623 466 481 482 483
453 623 466 481 482 497
454 623 467 466 481 482
455 623 467 468 469 470
456 623 467 472 471 470
457 623 468 467 466 481
458 623 468 467 472 471
459 623 468 469 470 471
460 623 469 468 467 472
461 623 469 470 471 472
462 623 472 467 466 481
463 623 481 482 483 484
464 623 481 482 483 488
465 623 482 483 484 485
466 623 482 483 488 487
467 623 483 484 485 486
468 623 483 488 487 486
469 623 484 483 482 497
470 623 484 483 488 487
471 623 484 485 486 487
472 623 485 484 483 488
473 623 485 486 487 488
474 623 488 483 482 497
475 623 505 506 507 508
476 623 505 506 507 512
477 623 505 506 521 522
478 623 506 507 508 509
479 623 506 507 512 511
480 623 506 521 522 523
481 623 506 521 522 537
482 623 507 506 505 669
483 623 507 506 521 522
484 623 507 508 509 510
485 623 507 512 511 510
486 623 508 507 506 521
487 623 508 507 512 511
488 623 508 509 510 511
489 623 509 508 507 512
490 623 509 510 511 512
491 623 512 507 506 521
492 623 521 506 505 669
493 623 521 522 523 524
494 623 521 522 523 528
495 623 521 522 537 538
496 623 522 523 524 525
497 623 522 523 528 527
498 623 522 537 538 539
499 623 522 537 538 553
500 623 523 522 537 538
501 623 523 524 525 526
502 623 523 528 527 526
503 623 524 523 522 537
504 623 524 523 528 527
505 623 524 525 526 527
506 623 525 524 523 528
507 623 525 526 527 528
508 623 528 523 522 537
509 623 537 538 539 540
510 623 537 538 539 544
511 623 537 538 553 554
512 623 538 539 540 541
513 623 538 539 544 543
514 623 538 553 554 555
515 623 538 553 554 569
516 623 539 538 553 554
517 623 539 540 541 542
518 623 539 544 543 542
519 623 540 539 538 553
520 623 540 539 544 543
521 623 540 541 542 543
522 623 541 540 539 544
523 623 541 542 543 544
524 623 544 539 538 553
525 623 553 554 555 556
526 623 553 554 555 560
527 623 553 554 569 570
528 623 554 555 556 557
529 623 554 555 560 559
530 623 554 569 570 571
531 623 554 569 570 585
532 623 555 554 569 570
533 623 555 556 557 558
534 623 555 560 559 558
535 623 556 555 554 569
536 623 556 555 560 559
537 623 556 557 558 559
538 623 557 556 555 560
539 623 557 558 559 560
540 623 560 555 554 569
541 623 569 570 571 572
542 623 569 570 571 576
543 623 569 570 585 586
544 623 570 571 572 573
545 623 570 571 576 575
546 623 570 585 586 587
547 623 570 585 586 601
548 623 571 570 585 586
549 623 571 572 573 574
550 623 571 576 575 574
551 623 572 571 570 585
552 623 572 571 576 575
553 623 572 573 574 575
554 623 573 572 571 576
555 623 573 574 575 576
556 623 576 571 570 585
557 623 585 586 587 588
558 623 585 586 587 592
559 623 585 586 601 602
560 623 586 587 588 589
561 623 586 587 592 591
562 623 586 601 602 603
563 623 586 601 602 617
564 623 587 586 601 602
565 623 587 588 589 590
566 623 587 592 591 590
567 623 588 587 586 601
568 623 588 587 592 591
569 623 588 589 590 591
570 623 589 588 587 592
571 623 589 590 591 592
572 623 592 587 586 601
573 623 601 602 603 604
574 623 601 602 603 608
575 623 601 602 617 618
576 623 602 603 604 605
577 623 602 603 608 607
578 623 602 617 618 619
579 623 602 617 618 633
580 623 603 602 617 618
581 623 603 604 605 606
582 623 603 608 607 606
583 623 604 603 602 617
584 623 604 603 608 607
585 623 604 605 606 607
586 623 605 604 603 608
587 623 605 606 607 608
588 623 608 603 602 617
589 623 617 618 619 620
590 623 617 618 619 624
591 623 617 618 633 634
592 623 618 619 620 621
593 623 618 619 624 623
594 623 618 633 634 635
595 623 618 633 634 649
596 623 619 618 633 634
597 623 619 620 621 622
598 623 619 624 623 622
599 623 620 619 618 633
600 623 620 619 624 623
601 623 620 621 622 623
602 623 621 620 619 624
603 623 621 622 623 624
604 623 624 619 618 633
605 623 633 634 635 636
606 623 633 634 635 640
607 623 633 634 649 650
608 623 634 635 636 637
609 623 634 635 640 639
610 623 634 649 650 651
611 623 634 649 650 665
612 623 635 634 649 650
613 623 635 636 637 638
614 623 635 640 639 638
615 623 636 635 634 649
616 623 636 635 640 639
617 623 636 637 638 639
618 623 637 636 635 640
619 623 637 638 639 640
620 623 640 635 634 649
621 623 649 650 651 652
622 623 649 650 651 656
623 623 650 651 652 653
624 623 650 651 656 655
625 623 651 652 653 654
626 623 651 656 655 654
627 623 652 651 650 665
628 623 652 651 656 655
629 623 652 653 654 655
630 623 653 652 651 656
631 623 653 654 655 656
632 623 656 651 650 665
633 623 673 674 675 676
634 623 673 674 675 680
635 623 673 674 689 690
636 623 674 675 676 677
637 623 674 675 680 679
638 623 674 689 690 691
639 623 674 689 690 705
640 623 675 674 673 837
641 623 675 674 689 690
642 623 675 676 677 678
643 623 675 680 679 678
644 623 676 675 674 689
645 623 676 675 680 679
646 623 676 677 678 679
647 623 677 676 675 680
648 623 677 678 679 680
649 623 680 675 674 689
650 623 689 674 673 837
651 623 689 690 691 692
652 623 689 690 691 696
653 623 689 690 705 706
654 623 690 691 692 693
655 623 690 691 696 695
656 623 690 705 706 707
657 623 690 705 706 721
658 623 691 690 705 706
659 623 691 692 693 694
660 623 691 696 695 694
661 623 692 691 690 705
662 623 692 691 696 695
663 623 692 693 694 695
664 623 693 692 691 696
665 623 693 694 695 696
666 623 696 691 690 705
667 623 705 706 707 708
668 623 705 706 707 712
669 623 705 706 721 722
670 623 706 707 708 709
671 623 706 707 712 711
672 623 706 721 722 723
673 623 706 721 722 737
674 623 707 706 721 722
675 623 707 708 709 710
676 623 707 712 711 710
677 623 708 707 706 721
678 623 708 707 712 711
679 623 708 709 710 711
680 623 709 708 707 712
681 623 709 710 711 712
682 623 712 707 706 721
683 623 721 722 723 724
684 623 721 722 723 728
685 623 721 722 737 738
686 623 722 723 724 725
687 623 722 723 728 727
688 623 722 737 738 739
689 623 722 737 738 753
690 623 723 722 737 738
691 623 723 724 725 726
692 623 723 728 727 726
693 623 724 723 722 737
694 623 724 723 728 727
695 623 724 725 726 727
696 623 725 724 723 728
697 623 725 726 727 728
698 623 728 723 722 737
699 623 737 738 739 740
700 623 737 738 739 744
701 623 737 738 753 754
702 623 738 739 740 741
703 623 738 739 744 743
704 623 738 753 754 755
705 623 738 753 754 769
706 623 739 738 753 754
707 623 739 740 741 742
708 623 739 744 743 742
709 623 740 739 738 753
710 623 740 739 744 743
711 623 740 741 742 743
712 623 741 740 739 744
713 623 741 742 743 744
714 623 744 739 738 753
715 623 753 754 755 756
716 623 753 754 755 760
717 623 753 754 769 770
718 623 754 755 756 757
719 623 754 755 760 759
720 623 754 769 770 771
721 623 754 769 770 785
722 623 755 754 769 770
723 623 755 756 757 758
724 623 755 760 759 758
725 623 756 755 754 769
726 623 756 755 760 759
727 623 756 757 758 759
728 623 757 756 755 760
729 623 757 758 759 760
730 623 760 755 754 769
731 623 769 770 771 772
732 623 769 770 771 776
733 623 769 770 785 786
734 623 770 771 772 773
735 623 770 771 776 775
736 623 770 785 786 787
737 623 770 785 786 801
738 623 771 770 785 786
739 623 771 772 773 774
740 623 771 776 775 774
741 623 772 771 770 785
742 623 772 771 776 775
743 623 772 773 774 775
744 623 773 772 771 776
745 623 773 774 775 776
746 623 776 771 770 785
747 623 785 786 787 788
748 623 785 786 787 792
749 623 785 786 801 802
750 623 786 787 788 789
751 623 786 787 792 791
752 623 786 801 802 803
753 623 786 801 802 817
754 623 787 786 801 802
755 623 787 788 789 790
756 623 787 792 791 790
757 623 788 787 786 801
758 623 788 787 792 791
759 623 788 789 790 791
760 623 789 788 787 792
761 623 789 790 791 792
762 623 792 787 786 801
763 623 801 802 803 804
764 623 801 802 803 808
765 623 801 802 817 818
766 623 802 803 804 805
767 623 802 803 808 807
768 623 802 817 818 819
769 623 802 817 818 833
770 623 803 802 817 818
771 623 803 804 805 806
772 623 803 808 807 806
773 623 804 803 802 817
774 623 804 803 808 807
775 623 804 805 806 807
776 623 805 804 803 808
777 623 805 806 807 808
778 623 808 803 802 817
779 623 817 818 819 820
780 623 817 818 819 824
781 623 818 819 820 821
782 623 818 819 824 823
783 623 819 820 821 822
784 623 819 824 823 822
785 623 820 819 818 833
786 623 820 819 824 823
787 623 820 821 822 823
788 623 821 820 819 824
789 623 821 822 823 824
790 623 824 819 818 833
791 623 841 842 843 844
792 623 841 842 843 848
793 623 841 842 857 858
794 623 842 843 844 845
795 623 842 843 848 847
796 623 842 857 858 859
797 623 842 857 858 873
798 623 843 842 841 1005
799 623 843 842 857 858
800 623 843 844 845 846
801 623 843 848 847 846
802 623 844 843 842 857
803 623 844 843 848 847
804 623 844 845 846 847
805 623 845 844 843 848
806 623 845 846 847 848
807 623 848 843 842 857
808 623 857 842 841 1005
809 623 857 858 859 860
810 623 857 858 859 864
811 623 857 858 873 874
812 623 858 859 860 861
813 623 858 859 864 863
814 623 858 873 874 875
815 623 858 873 874 889
816 623 859 858 873 874
817 623 859 860 861 862
818 623 859 864 863 862
819 623 860 859 858 873
820 623 860 859 864 863
821 623 860 861 862 863
822 623 861 860 859 864
823 623 861 862 863 864
824 623 864 859 858 873
825 623 873 874 875 876
826 623 873 874 875 880
827 623 873 874 889 890
828 623 874 875 876 877
829 623 874 875 880 879
830 623 874 889 890 891
831 623 874 889 890 905
832 623 875 874 889 890
833 623 875 876 877 878
834 623 875 880 879 878
835 623 876 875 874 889
836 623 876 875 880 879
837 623 876 877 878 879
838 623 877 876 875 880
839 623 877 878 879 880
840 623 880 875 874 889
841 623 889 890 891 892
842 623 889 890 891 896
843 623 889 890 905 906
844 623 890 891 892 893
845 623 890 891 896 895
846 623 890 905 906 907
847 623 890 905 906 921
848 623 891 890 905 906
849 623 891 892 893 894
850 623 891 896 895 894
851 623 892 891 890 905
852 623 892 891 896 895
853 623 892 893 894 895
854 623 893 892 891 896
855 623 893 894 895 896
856 623 896 891 890 905
857 623 905 906 907 908
858 623 905 906 907 912
859 623 905 906 921 922
860 623 906 907 908 909
861 623 906 907 912 911
862 623 906 921 922 923
863 623 906 921 922 937
864 623 907 906 921 922
865 623 907 908 909 910
866 623 907 912 911 910
867 623 908 907 906 921
868 623 908 907 912 911
869 623 908 909 910 911
870 623 909 908 907 912
871 623 909 910 911 912
872 623 912 907 906 921
873 623 921 922 923 924
874 623 921 922 923 928
875 623 921 922 937 938
876 623 922 923 924 925
877 623 922 923 928 927
878 623 922 937 938 939
879 623 922 937 938 953
880 623 923 922 937 938
881 623 923 924 925 926
882 623 923 928 927 926
883 623 924 923 922 937
884 623 924 923 928 927
885 623 924 925 926 927
886 623 925 924 923 928
887 623 925 926 927 928
888 623 928 923 922 937
889 623 937 938 939 940
890 623 937 938 939 944
891 623 937 938 953 954
892 623 938 939 940 941
893 623 938 939 944 943
894 623 938 953 954 955
895 623 938 953 954 969
896 623 939 938 953 954
897 623 939 940 941 942
898 623 939 944 943 942
899 623 940 939 938 953
900 623 940 939 944 943
901 623 940 941 942 943
902 623 941 940 939 944
903 623 941 942 943 944
904 623 944 939 938 953
905 623 953 954 955 956
906 623 953 954 955 960
907 623 953 954 969 970
908 623 954 955 956 957
909 623 954 955 960 959
910 623 954 969 970 971
911 623 954 969 970 985
912 623 955 954 969 970
913 623 955 956 957 958
914 623 955 960 959 958
915 623 956 955 954 969
916 623 956 955 960 959
917 623 956 957 958 959
918 623 957 956 955 960
919 623 957 958 959 960
920 623 960 955 954 969
921 623 969 970 971 972
922 623 969 970 971 976
923 623 969 970 985 986
924 623 970 971 972 973
925 623 970 971 976 975
926 623 970 985 986 987
927 623 970 985 986 1001
928 623 971 970 985 986
929 623 971 972 973 974
930 623 971 976 975 974
931 623 972 971 970 985
932 623 972 971 976 975
933 623 972 973 974 975
934 623 973 972 971 976
935 623 973 974 975 976
936 623 976 971 970 985
937 623 985 986 987 988
938 623 985 986 987 992
939 623 986 987 988 989
940 623 986 987 992 991
941 623 987 988 989 990
942 623 987 992 991 990
943 623 988 987 986 1001
944 623 988 987 992 991
945 623 988 989 990 991
946 623 989 988 987 992
947 623 989 990 991 992
948 623 992 987 986 1001
949 623 1009 1010 1011 1012
950 623 1009 1010 1011 1016
951 623 1009 1010 1025 1026
952 623 1010 1011 1012 1013
953 623 1010 1011 1016 1015
954 623 1010 1025 1026 1027
955 623 1010 1025 1026 1041
956 623 1011 1010 1009 1173
957 623 1011 1010 1025 1026
958 623 1011 1012 1013 1014
959 623 1011 1016 1015 1014
960 623 1012 1011 1010 1025
961 623 1012 1011 1016 1015
962 623 1012 1013 1014 1015
963 623 1013 1012 1011 1016
964 623 1013 1014 1015 1016
965 623 1016 1011 1010 1025
966 623 1025 1010 1009 1173
967 623 1025 1026 1027 1028
968 623 1025 1026 1027 1032
969 623 1025 1026 1041 1042
970 623 1026 1027 1028 1029
971 623 1026 1027 1032 1031
972 623 1026 1041 1042 1043
973 623 1026 1041 1042 1057
974 623 1027 1026 1041 1042
975 623 1027 1028 1029 1030
976 623 1027 1032 1031 1030
977 623 1028 1027 1026 1041
978 623 1028 1027 1032 1031
979 623 1028 1029 1030 1031
980 623 1029 1028 1027 1032
981 623 1029 1030 1031 1032
982 623 1032 1027 1026 1041
983 623 1041 1042 1043 1044
984 623 1041 1042 1043 1048
985 623 1041 1042 1057 1058
986 623 1042 1043 1044 1045
987 623 1042 1043 1048 1047
988 623 1042 1057 1058 1059
989 623 1042 1057 1058 1073
990 623 1043 1042 1057 1058
991 623 1043 1044 1045 1046
992 623 1043 1048 1047 1046
993 623 1044 1043 1042 1057
994 623 1044 1043 1048 1047
995 623 1044 1045 1046 1047
996 623 1045 1044 1043 1048
997 623 1045 1046 1047 1048
998 623 1048 1043 1042 1057
999 623 1057 1058 1059 1060
1000 623 1057 1058 1059 1064
1001 623 1057 1058 1073 1074
1002 623 1058 1059 1060 1061
1003 623 1058 1059 1064 1063
1004 623 1058 1073 1074 1075
1005 623 1058 1073 1074 1089
1006 623 1059 1058 1073 1074
1007 623 1059 1060 1061 1062
1008 623 1059 1064 1063 1062
1009 623 1060 1059 1058 1073
1010 623 1060 1059 1064 1063
1011 623 1060 1061 1062 1063
1012 623 1061 1060 1059 1064
1013 623 1061 1062 1063 1064
1014 623 1064 1059 1058 1073
1015 623 1073 1074 1075 1076
1016 623 1073 1074 1075 1080
1017 623 1073 1074 1089 1090
1018 623 1074 1075 1076 1077
1019 623 1074 1075 1080 1079
1020 623 1074 1089 1090 1091
1021 623 1074 1089 1090 1105
1022 623 1075 1074 1089 1090
1023 623 1075 1076 1077 1078
1024 623 1075 1080 1079 1078
1025 623 1076 1075 1074 1089
1026 623 1076 1075 1080 1079
1027 623 1076 1077 1078 1079
1028 623 1077 1076 1075 1080
1029 623 1077 1078 1079 1080
1030 623 1080 1075 1074 1089
1031 623 1089 1090 1091 1092
1032 623 1089 1090 1091 1096
1033 623 1089 1090 1105 1106
1034 623 1090 1091 1092 1093
1035 623 1090 1091 1096 1095
1036 623 1090 1105 1106 1107
1037 623 1090 1105 1106 1121
1038 623 1091 1090 1105 1106
1039 623 1091 1092 1093 1094
1040 623 1091 1096 1095 1094
1041 623 1092 1091 1090 1105
1042 623 1092 1091 1096 1095
1043 623 1092 1093 1094 1095
1044 623 1093 1092 1091 1096
1045 623 1093 1094 1095 1096
1046 623 1096 1091 1090 1105
1047 623 1105 1106 1107 1108
1048 623 1105 1106 1107 1112
1049 623 1105 1106 1121 1122
1050 623 1106 1107 1108 1109
1051 623 1106 1107 1112 1111
1052 623 1106 1121 1122 1123
1053 623 1106 1121 1122 1137
1054 623 1107 1106 1121 1122
1055 623 1107 1108 1109 1110
1056 623 1107 1112 1111 1110
1057 623 1108 1107 1106 1121
1058 623 1108 1107 1112 1111
1059 623 1108 1109 1110 1111
1060 623 1109 1108 1107 1112
1061 623 1109 1110 1111 1112
1062 623 1112 1107 1106 1121
1063 623 1121 1122 1123 1124
1064 623 1121 1122 1123 1128
1065 623 1121 1122 1137 1138
1066 623 1122 1123 1124 1125
1067 623 1122 1123 1128 1127
1068 623 1122 1137 1138 1139
1069 623 1122 1137 1138 1153
1070 623 1123 1122 1137 1138
1071 623 1123 1124 1125 1126
1072 623 1123 1128 1127 1126
1073 623 1124 1123 1122 1137
1074 623 1124 1123 1128 1127
1075 623 1124 1125 1126 1127
1076 623 1125 1124 1123 1128
1077 623 1125 1126 1127 1128
1078 623 1128 1123 1122 1137
1079 623 1137 1138 1139 1140
1080 623 1137 1138 1139 1144
1081 623 1137 1138 1153 1154
1082 623 1138 1139 1140 1141
1083 623 1138 1139 1144 1143
1084 623 1138 1153 1154 1155
1085 623 1138 1153 1154 1169
1086 623 1139 1138 1153 1154
1087 623 1139 1140 1141 1142
1088 623 1139 1144 1143 1142
1089 623 1140 1139 1138 1153
1090 623 1140 1139 1144 1143
1091 623 1140 1141 1142 1143
1092 623 1141 1140 1139 1144
1093 623 1141 1142 1143 1144
1094 623 1144 1139 1138 1153
1095 623 1153 1154 1155 1156
1096 623 1153 1154 1155 1160
1097 623 1154 1155 1156 1157
1098 623 1154 1155 1160 1159
1099 623 1155 1156 1157 1158
1100 623 1155 1160 1159 1158
1101 623 1156 1155 1154 1169
1102 623 1156 1155 1160 1159
1103 623 1156 1157 1158 1159
1104 623 1157 1156 1155 1160
1105 623 1157 1158 1159 1160
1106 623 1160 1155 1154 1169
1107 623 1177 1178 1179 1180
1108 623 1177 1178 1179 1184
1109 623 1177 1178 1193 1194
1110 623 1178 1179 1180 1181
1111 623 1178 1179 1184 1183
1112 623 1178 1193 1194 1195
1113 623 1178 1193 1194 1209
1114 623 1179 1178 1177 1341
1115 623 1179 1178 1193 1194
1116 623 1179 1180 1181 1182
1117 623 1179 1184 1183 1182
1118 623 1180 1179 1178 1193
1119 623 1180 1179 1184 1183
1120 623 1180 1181 1182 1183
1121 623 1181 1180 1179 1184
1122 623 1181 1182 1183 1184
1123 623 1184 1179 1178 1193
1124 623 1193 1178 1177 1341
1125 623 1193 1194 1195 1196
1126 623 1193 1194 1195 1200
1127 623 1193 1194 1209 1210
1128 623 1194 1195 1196 1197
1129 623 1194 1195 1200 1199
1130 623 1194 1209 1210 1211
1131 623 1194 1209 1210 1225
1132 623 1195 1194 1209 1210
1133 623 1195 1196 1197 1198
1134 623 1195 1200 1199 1198
1135 623 1196 1195 1194 1209
1136 623 1196 1195 1200 1199
1137 623 1196 1197 1198 1199
1138 623 1197 1196 1195 1200
1139 623 1197 1198 1199 1200
1140 623 1200 1195 1194 1209
1141 623 1209 1210 1211 1212
1142 623 1209 1210 1211 1216
1143 623 1209 1210 1225 1226
1144 623 1210 1211 1212 1213
1145 623 1210 1211 1216 1215
1146 623 1210 1225 1226 1227
1147 623 1210 1225 1226 1241
1148 623 1211 1210 1225 1226
1149 623 1211 1212 1213 1214
1150 623 1211 1216 1215 1214
1151 623 1212 1211 1210 1225
1152 623 1212 1211 1216 1215
1153 623 1212 1213 1214 1215
1154 623 1213 1212 1211 1216
1155 623 1213 1214 1215 1216
1156 623 1216 1211 1210 1225
1157 623 1225 1226 1227 1228
1158 623 1225 1226 1227 1232
1159 623 1225 1226 1241 1242
1160 623 1226 1227 1228 1229
1161 623 1226 1227 1232 1231
1162 623 1226 1241 1242 1243
1163 623 1226 1241 1242 1257
1164 623 1227 1226 1241 1242
1165 623 1227 1228 1229 1230
1166 623 1227 1232 1231 1230
1167 623 1228 1227 1226 1241
1168 623 1228 1227 1232 1231
1169 623 1228 1229 1230 1231
1170 623 1229 1228 1227 1232
1171 623 1229 1230 1231 1232
1172 623 1232 1227 1226 1241
1173 623 1241 1242 1243 1244
1174 623 1241 1242 1243 1248
1175 623 1241 1242 1257 1258
1176 623 1242 1243 1244 1245
1177 623 1242 1243 1248 1247
1178 623 1242 1257 1258 1259
1179 623 1242 1257 1258 1273
1180 623 1243 1242 1257 1258
1181 623 1243 1244 1245 1246
1182 623 1243 1248 1247 1246
1183 623 1244 1243 1242 1257
1184 623 1244 1243 1248 1247
1185 623 1244 1245 1246 1247
1186 623 1245 1244 1243 1248
1187 623 1245 1246 1247 1248
1188 623 1248 1243 1242 1257
1189 623 1257 1258 1259 1260
1190 623 1257 1258 1259 1264
1191 623 1257 1258 1273 1274
1192 623 1258 1259 1260 1261
1193 623 1258 1259 1264 1263
1194 623 1258 1273 1274 1275
1195 623 1258 1273 1274 1289
1196 623 1259 1258 1273 1274
1197 623 1259 1260 1261 1262
1198 623 1259 1264 1263 1262
1199 623 1260 1259 1258 1273
1200 623 1260 1259 1264 1263
1201 623 1260 1261 1262 1263
1202 623 1261 1260 1259 1264
1203 623 1261 1262 1263 1264
1204 623 1264 1259 1258 1273
1205 623 1273 1274 1275 1276
1206 623 1273 1274 1275 1280
1207 623 1273 1274 1289 1290
1208 623 1274 1275 1276 1277
1209 623 1274 1275 1280 1279
1210 623 1274 1289 1290 1291
1211 623 1274 1289 1290 1305
1212 623 1275 1274 1289 1290
1213 623 1275 1276 1277 1278
1214 623 1275 1280 1279 1278
1215 623 1276 1275 1274 1289
1216 623 1276 1275 1280 1279
1217 623 1276 1277 1278 1279
1218 623 1277 1276 1275 1280
1219 623 1277 1278 1279 1280
1220 623 1280 1275 1274 1289
1221 623 1289 1290 1291 1292
1222 623 1289 1290 1291 1296
1223 623 1289 1290 1305 1306
1224 623 1290 1291 1292 1293
1225 623 1290 1291 1296 1295
1226 623 1290 1305 1306 1307
1227 623 1290 1305 1306 1321
1228 623 1291 1290 1305 1306
1229 623 1291 1292 1293 1294
1230 623 1291 1296 1295 1294
1231 623 1292 1291 1290 1305
1232 623 1292 1291 1296 1295
1233 623 1292 1293 1294 1295
1234 623 1293 1292 1291 1296
1235 623 1293 1294 1295 1296
1236 623 1296 1291 1290 1305
1237 623 1305 1306 1307 1308
1238 623 1305 1306 1307 1312
1239 623 1305 1306 1321 1322
1240 623 1306 1307 1308 1309
1241 623 1306 1307 1312 1311
1242 623 1306 1321 1322 1323
1243 623 1306 1321 1322 1337
1244 623 1307 1306 1321 1322
1245 623 1307 1308 1309 1310
1246 623 1307 1312 1311 1310
1247 623 1308 1307 1306 1321
1248 623 1308 1307 1312 1311
1249 623 1308 1309 1310 1311
1250 623 1309 1308 1307 1312
1251 623 1309 1310 1311 1312
1252 623 1312 1307 1306 1321
1253 623 1321 1322 1323 1324
1254 623 1321 1322 1323 1328
1255 623 1322 1323 1324 1325
1256 623 1322 1323 1328 1327
1257 623 1323 1324 1325 1326
1258 623 1323 1328 1327 1326
1259 623 1324 1323 1322 1337
1260 623 1324 1323 1328 1327
1261 623 1324 1325 1326 1327
1262 623 1325 1324 1323 1328
1263 623 1325 1326 1327 1328
1264 623 1328 1323 1322 1337
1265 623 1345 1346 1347 1348
1266 623 1345 1346 1347 1352
1267 623 1345 1346 1361 1362
1268 623 1346 1347 1348 1349
1269 623 1346 1347 1352 1351
1270 623 1346 1361 1362 1363
1271 623 1346 1361 1362 1377
1272 623 1347 1346 1345 1509
1273 623 1347 1346 1361 1362
1274 623 1347 1348 1349 1350
1275 623 1347 1352 1351 1350
1276 623 1348 1347 1346 1361
1277 623 1348 1347 1352 1351
1278 623 1348 1349 1350 1351
1279 623 1349 1348 1347 1352
1280 623 1349 1350 1351 1352
1281 623 1352 1347 1346 1361
1282 623 1361 1346 1345 1509
1283 623 1361 1362 1363 1364
1284 623 1361 1362 1363 1368
1285 623 1361 1362 1377 1378
1286 623 1362 1363 1364 1365
1287 623 1362 1363 1368 1367
1288 623 1362 1377 1378 1379
1289 623 1362 1377 1378 1393
1290 623 1363 1362 1377 1378
1291 623 1363 1364 1365 1366
1292 623 1363 1368 1367 1366
1293 623 1364 1363 1362 1377
1294 623 1364 1363 1368 1367
1295 623 1364 1365 1366 1367
1296 623 1365 1364 1363 1368
1297 623 1365 1366 1367 1368
1298 623 1368 1363 1362 1377
1299 623 1377 1378 1379 1380
1300 623 1377 1378 1379 1384
1301 623 1377 1378 1393 1394
1302 623 1378 1379 1380 1381
1303 623 1378 1379 1384 1383
1304 623 1378 1393 1394 1395
1305 623 1378 1393 1394 1409
1306 623 1379 1378 1393 1394
1307 623 1379 1380 1381 1382
1308 623 1379 1384 1383 1382
1309 623 1380 1379 1378 1393
1310 623 1380 1379 1384 1383
1311 623 1380 1381 1382 1383
1312 623 1381 1380 1379 1384
1313 623 1381 1382 1383 1384
1314 623 1384 1379 1378 1393
1315 623 1393 1394 1395 1396
1316 623 1393 1394 1395 1400
1317 623 1393 1394 1409 1410
1318 623 1394 1395 1396 1397
1319 623 1394 1395 1400 1399
1320 623 1394 1409 1410 1411
1321 623 1394 1409 1410 1425
1322 623 1395 1394 1409 1410
1323 623 1395 1396 1397 1398
1324 623 1395 1400 1399 1398
1325 623 1396 1395 1394 1409
1326 623 1396 1395 1400 1399
1327 623 1396 1397 1398 1399
1328 623 1397 1396 1395 1400
1329 623 1397 1398 1399 1400
1330 623 1400 1395 1394 1409
1331 623 1409 1410 1411 1412
1332 623 1409 1410 1411 1416
1333 623 1409 1410 1425 1426
1334 623 1410 1411 1412 1413
1335 623 1410 1411 1416 1415
1336 623 1410 1425 1426 1427
1337 623 1410 1425 1426 1441
1338 623 1411 1410 1425 1426
1339 623 1411 1412 1413 1414
1340 623 1411 1416 1415 1414
1341 623 1412 1411 1410 1425
1342 623 1412 1411 1416 1415
1343 623 1412 1413 1414 1415
1344 623 1413 1412 1411 1416
1345 623 1413 1414 1415 1416
1346 623 1416 1411 1410 1425
1347 623 1425 1426 1427 1428
1348 623 1425 1426 1427 1432
1349 623 1425 1426 1441 1442
1350 623 1426 1427 1428 1429
1351 623 1426 1427 1432 1431
1352 623 1426 1441 1442 1443
1353 623 1426 1441 1442 1457
1354 623 1427 1426 1441 1442
1355 623 1427 1428 1429 1430
1356 623 1427 1432 1431 1430
1357 623 1428 1427 1426 1441
1358 623 1428 1427 1432 1431
1359 623 1428 1429 1430 1431
1360 623 1429 1428 1427 1432
1361 623 1429 1430 1431 1432
1362 623 1432 1427 1426 1441
1363 623 1441 1442 1443 1444
1364 623 1441 1442 1443 1448
1365 623 1441 1442 1457 1458
1366 623 1442 1443 1444 1445
1367 623 1442 1443 1448 1447
1368 623 1442 1457 1458 1459
1369 623 1442 1457 1458 1473
1370 623 1443 1442 1457 1458
1371 623 1443 1444 1445 1446
1372 623 1443 1448 1447 1446
1373 623 1444 1443 1442 1457
1374 623 1444 1443 1448 1447
1375 623 1444 1445 1446 1447
1376 623 1445 1444 1443 1448
1377 623 1445 1446 1447 1448
1378 623 1448 1443 1442 1457
1379 623 1457 1458 1459 1460
1380 623 1457 1458 1459 1464
1381 623 1457 1458 1473 1474
1382 623 1458 1459 1460 1461
1383 623 1458 1459 1464 1463
1384 623 1458 1473 1474 1475
1385 623 1458 1473 1474 1489
1386 623 1459 1458 1473 1474
1387 623 1459 1460 1461 1462
1388 623 1459 1464 1463 1462
1389 623 1460 1459 1458 1473
1390 623 1460 1459 1464 1463
1391 623 1460 1461 1462 1463
1392 623 1461 1460 1459 1464
1393 623 1461 1462 1463 1464
1394 623 1464 1459 1458 1473
1395 623 1473 1474 1475 1476
1396 623 1473 1474 1475 1480
1397 623 1473 1474 1489 1490
1398 623 1474 1475 1476 1477
1399 623 1474 1475 1480 1479
1400 623 1474 1489 1490 1491
1401 623 1474 1489 1490 1505
1402 623 1475 1474 1489 1490
1403 623 1475 1476 1477 1478
1404 623 1475 1480 1479 1478
1405 623 1476 1475 1474 1489
1406 623 1476 1475 1480 1479
1407 623 1476 1477 1478 1479
1408 623 1477 1476 1475 1480
1409 623 1477 1478 1479 1480
1410 623 1480 1475 1474 1489
1411 623 1489 1490 1491 1492
1412 623 1489 1490 1491 1496
1413 623 1490 1491 1492 1493
1414 623 1490 1491 1496 1495
1415 623 1491 1492 1493 1494
1416 623 1491 1496 1495 1494
1417 623 1492 1491 1490 1505
1418 623 1492 1491 1496 1495
1419 623 1492 1493 1494 1495
1420 623 1493 1492 1491 1496
1421 623 1493 1494 1495 1496
1422 623 1496 1491 1490 1505
1423 623 1513 1514 1515 1516
1424 623 1513 1514 1515 1520
1425 623 1513 1514 1529 1530
1426 623 1514 1515 1516 1517
1427 623 1514 1515 1520 1519
1428 623 1514 1529 1530 1531
1429 623 1514 1529 1530 1545
1430 623 1515 1514 1513 1677
1431 623 1515 1514 1529 1530
1432 623 1515 1516 1517 1518
1433 623 1515 1520 1519 1518
1434 623 1516 1515 1514 1529
1435 623 1516 1515 1520 1519
1436 623 1516 1517 1518 1519
1437 623 1517 1516 1515 1520
1438 623 1517 1518 1519 1520
1439 623 1520 1515 1514 1529
1440 623 1529 1514 1513 1677
1441 623 1529 1530 1531 1532
1442 623 1529 1530 1531 1536
1443 623 1529 1530 1545 1546
1444 623 1530 1531 1532 1533
1445 623 1530 1531 1536 1535
1446 623 1530 1545 1546 1547
1447 623 1530 1545 1546 1561
1448 623 1531 1530 1545 1546
1449 623 1531 1532 1533 1534
1450 623 1531 1536 1535 1534
1451 623 1532 1531 1530 1545
1452 623 1532 1531 1536 1535
1453 623 1532 1533 1534 1535
1454 623 1533 1532 1531 1536
1455 623 1533 1534 1535 1536
1456 623 1536 1531 1530 1545
1457 623 1545 1546 1547 1548
1458 623 1545 1546 1547 1552
1459 623 1545 1546 1561 1562
1460 623 1546 1547 1548 1549
1461 623 1546 1547 1552 1551
1462 623 1546 1561 1562 1563
1463 623 1546 1561 1562 1577
1464 623 1547 1546 1561 1562
1465 623 1547 1548 1549 1550
1466 623 1547 1552 1551 1550
1467 623 1548 1547 1546 1561
1468 623 1548 1547 1552 1551
1469 623 1548 1549 1550 1551
1470 623 1549 1548 1547 1552
1471 623 1549 1550 1551 1552
1472 623 1552 1547 1546 1561
1473 623 1561 1562 1563 1564
1474 623 1561 1562 1563 1568
1475 623 1561 1562 1577 1578
1476 623 1562 1563 1564 1565
1477 623 1562 1563 1568 1567
1478 623 1562 1577 1578 1579
1479 623 1562 1577 1578 1593
1480 623 1563 1562 1577 1578
1481 623 1563 1564 1565 1566
1482 623 1563 1568 1567 1566
1483 623 1564 1563 1562 1577
1484 623 1564 1563 1568 1567
1485 623 1564 1565 1566 1567
1486 623 1565 1564 1563 1568
1487 623 1565 1566 1567 1568
1488 623 1568 1563 1562 1577
1489 623 1577 1578 1579 1580
1490 623 1577 1578 1579 1584
1491 623 1577 1578 1593 1594
1492 623 1578 1579 1580 1581
1493 623 1578 1579 1584 1583
1494 623 1578 1593 1594 1595
1495 623 1578 1593 1594 1609
1496 623 1579 1578 1593 1594
1497 623 1579 1580 1581 1582
1498 623 1579 1584 1583 1582
1499 623 1580 1579 1578 1593
1500 623 1580 1579 1584 1583
1501 623 1580 1581 1582 1583
1502 623 1581 1580 1579 1584
1503 623 1581 1582 1583 1584
1504 623 1584 1579 1578 1593
1505 623 1593 1594 1595 1596
1506 623 1593 1594 1595 1600
1507 623 1593 1594 1609 1610
1508 623 1594 1595 1596 1597
1509 623 1594 1595 1600 1599
1510 623 1594 1609 1610 1611
1511 623 1594 1609 1610 1625
1512 623 1595 1594 1609 1610
1513 623 1595 1596 1597 1598
1514 623 1595 1600 1599 1598
1515 623 1596 1595 1594 1609
1516 623 1596 1595 1600 1599
1517 623 1596 1597 1598 1599
1518 623 1597 1596 1595 1600
1519 623 1597 1598 1599 1600
1520 623 1600 1595 1594 1609
1521 623 1609 1610 1611 1612
1522 623 1609 1610 1611 1616
1523 623 1609 1610 1625 1626
1524 623 1610 1611 1612 1613
1525 623 1610 1611 1616 1615
1526 623 1610 1625 1626 1627
1527 623 1610 1625 1626 1641
1528 623 1611 1610 1625 1626
1529 623 1611 1612 1613 1614
1530 623 1611 1616 1615 1614
1531 623 1612 1611 1610 1625
1532 623 1612 1611 1616 1615
1533 623 1612 1613 1614 1615
1534 623 1613 1612 1611 1616
1535 623 1613 1614 1615 1616
1536 623 1616 1611 1610 1625
1537 623 1625 1626 1627 1628
1538 623 1625 1626 1627 1632
1539 623 1625 1626 1641 1642
1540 623 1626 1627 1628 1629
1541 623 1626 1627 1632 1631
1542 623 1626 1641 1642 1643
1543 623 1626 1641 1642 1657
1544 623 1627 1626 1641 1642
1545 623 1627 1628 1629 1630
1546 623 1627 1632 1631 1630
1547 623 1628 1627 1626 1641
1548 623 1628 1627 1632 1631
1549 623 1628 1629 1630 1631
1550 623 1629 1628 1627 1632
1551 623 1629 1630 1631 1632
1552 623 1632 1627 1626 1641
1553 623 1641 1642 1643 1644
1554 623 1641 1642 1643 1648
1555 623 1641 1642 1657 1658
1556 623 1642 1643 1644 1645
1557 623 1642 1643 1648 1647
1558 623 1642 1657 1658 1659
1559 623 1642 1657 1658 1673
1560 623 1643 1642 1657 1658
1561 623 1643 1644 1645 1646
1562 623 1643 1648 1647 1646
1563 623 1644 1643 1642 1657
1564 623 1644 1643 1648 1647
1565 623 1644 1645 1646 1647
1566 623 1645 1644 1643 1648
1567 623 1645 1646 1647 1648
1568 623 1648 1643 1642 1657
1569 623 1657 1658 1659 1660
1570 623 1657 1658 1659 1664
1571 623 1658 1659 1660 1661
1572 623 1658 1659 1664 1663
1573 623 1659 1660 1661 1662
1574 623 1659 1664 1663 1662
1575 623 1660 1659 1658 1673
1576 623 1660 1659 1664 1663
1577 623 1660 1661 1662 1663
1578 623 1661 1660 1659 1664
1579 623 1661 1662 1663 1664
1580 623 1664 1659 1658 1673
1581 638 9 1 2 11
1582 638 9 1 165 166
1583 638 9 1 165 167
1584 638 9 1 165 168
1585 638 10 1 2 11
1586 638 10 1 165 166
1587 638 10 1 165 167
1588 638 10 1 165 168
1589 638 11 2 17 25
1590 638 11 2 17 26
1591 638 12 4 5 13
1592 638 13 5 6 14
1593 638 14 6 7 15
1594 638 15 7 8 16
1595 638 25 17 18 27
1596 638 26 17 18 27
1597 638 27 18 33 41
1598 638 27 18 33 42
1599 638 28 20 21 29
1600 638 29 21 22 30
1601 638 30 22 23 31
1602 638 31 23 24 32
1603 638 41 33 34 43
1604 638 42 33 34 43
1605 638 43 34 49 57
1606 638 43 34 49 58
1607 638 44 36 37 45
1608 638 45 37 38 46
1609 638 46 38 39 47
1610 638 47 39 40 48
1611 638 57 49 50 59
1612 638 58 49 50 59
1613 638 59 50 65 73
1614 638 59 50 65 74
1615 638 60 52 53 61
1616 638 61 53 54 62
1617 638 62 54 55 63
1618 638 63 55 56 64
1619 638 73 65 66 75
1620 638 74 65 66 75
1621 638 75 66 81 89
1622 638 75 66 81 90
1623 638 76 68 69 77
1624 638 77 69 70 78
1625 638 78 70 71 79
1626 638 79 71 72 80
1627 638 89 81 82 91
1628 638 90 81 82 91
1629 638 91 82 97 105
1630 638 91 82 97 106
1631 638 92 84 85 93
1632 638 93 85 86 94
1633 638 94 86 87 95
1634 638 95 87 88 96
1635 638 105 97 98 107
1636 638 106 97 98 107
1637 638 107 98 113 121
1638 638 107 98 113 122
1639 638 108 100 101 109
1640 638 109 101 102 110
1641 638 110 102 103 111
1642 638 111 103 104 112
1643 638 121 113 114 123
1644 638 122 113 114 123
1645 638 123 114 129 137
1646 638 123 114 129 138
1647 638 124 116 117 125
1648 638 125 117 118 126
1649 638 126 118 119 127
1650 638 127 119 120 128
1651 638 137 129 130 139
1652 638 138 129 130 139
1653 638 139 130 145 153
1654 638 139 130 145 154
1655 638 140 132 133 141
1656 638 141 133 134 142
1657 638 142 134 135 143
1658 638 143 135 136 144
1659 638 153 145 146 155
1660 638 154 145 146 155
1661 638 155 146 161 162
1662 638 155 146 161 163
1663 638 155 146 161 164
1664 638 156 148 149 157
1665 638 157 149 150 158
1666 638 158 150 151 159
1667 638 159 151 152 160
1668 638 177 169 170 179
1669 638 177 169 333 334
1670 638 177 169 333 335
1671 638 177 169 333 336
1672 638 178 169 170 179
1673 638 178 169 333 334
1674 638 178 169 333 335
1675 638 178 169 333 336
1676 638 179 170 185 193
1677 638 179 170 185 194
1678 638 180 172 173 181
1679 638 181 173 174 182
1680 638 182 174 175 183
1681 638 183 175 176 184
1682 638 193 185 186 195
1683 638 194 185 186 195
1684 638 195 186 201 209
1685 638 195 186 201 210
1686 638 196 188 189 197
1687 638 197 189 190 198
1688 638 198 190 191 199
1689 638 199 191 192 200
1690 638 209 201 202 211
1691 638 210 201 202 211
1692 638 211 202 217 225
1693 638 211 202 217 226
1694 638 212 204 205 213
1695 638 213 205 206 214
1696 638 214 206 207 215
1697 638 215 207 208 216
1698 638 225 217 218 227
1699 638 226 217 218 227
1700 638 227 218 233 241
1701 638 227 218 233 242
1702 638 228 220 221 229
1703 638 229 221 222 230
1704 638 230 222 223 231
1705 638 231 223 224 232
1706 638 241 233 234 243
1707 638 242 233 234 243
1708 638 243 234 249 257
1709 638 243 234 249 258
1710 638 244 236 237 245
1711 638 245 237 238 246
1712 638 246 238 239 247
1713 638 247 239 240 248
1714 638 257 249 250 259
1715 638 258 249 250 259
1716 638 259 250 265 273
1717 638 259 250 265 274
1718 638 260 252 253 261
1719 638 261 253 254 262
1720 638 262 254 255 263
1721 638 263 255 256 264
1722 638 273 265 266 275
1723 638 274 265 266 275
1724 638 275 266 281 289
1725 638 275 266 281 290
1726 638 276 268 269 277
1727 638 277 269 270 278
1728 638 278 270 271 279
1729 638 279 271 272 280
1730 638 289 281 282 291
1731 638 290 281 282 291
1732 638 291 282 297 305
1733 638 291 282 297 306
1734 638 292 284 285 293
1735 638 293 285 286 294
1736 638 294 286 287 295
1737 638 295 287 288 296
1738 638 305 297 298 307
1739 638 306 297 298 307
1740 638 307 298 313 321
1741 638 307 298 313 322
1742 638 308 300 301 309
1743 638 309 301 302 310
1744 638 310 302 303 311
1745 638 311 303 304 312
1746 638 321 313 314 323
1747 638 322 313 314 323
1748 638 323 314 329 330
1749 638 323 314 329 331
1750 638 323 314 329 332
1751 638 324 316 317 325
1752 638 325 317 318 326
1753 638 326 318 319 327
1754 638 327 319 320 328
1755 638 345 337 338 347
1756 638 345 337 501 502
1757 638 345 337 501 503
1758 638 345 337 501 504
1759 638 346 337 338 347
1760 638 346 337 501 502
1761 638 346 337 501 503
1762 638 346 337 501 504
1763 638 347 338 353 361
1764 638 347 338 353 362
1765 638 348 340 341 349
1766 638 349 341 342 350
1767 638 350 342 343 351
1768 638 351 343 344 352
1769 638 361 353 354 363
1770 638 362 353 354 363
1771 638 363 354 369 377
1772 638 363 354 369 378
1773 638 364 356 357 365
1774 638 365 357 358 366
1775 638 366 358 359 367
1776 638 367 359 360 368
1777 638 377 369 370 379
1778 638 378 369 370 379
1779 638 379 370 385 393
1780 638 379 370 385 394
1781 638 380 372 373 381
1782 638 381 373 374 382
1783 638 382 374 375 383
1784 638 383 375 376 384
1785 638 393 385 386 395
1786 638 394 385 386 395
1787 638 395 386 401 409
1788 638 395 386 401 410
1789 638 396 388 389 397
1790 638 397 389 390 398
1791 638 398 390 391 399
1792 638 399 391 392 400
1793 638 409 401 402 411
1794 638 410 401 402 411
1795 638 411 402 417 425
1796 638 411 402 417 426
1797 638 412 404 405 413
1798 638 413 405 406 414
1799 638 414 406 407 415
1800 638 415 407 408 416
1801 638 425 417 418 427
1802 638 426 417 418 427
1803 638 427 418 433 441
1804 638 427 418 433 442
1805 638 428 420 421 429
1806 638 429 421 422 430
1807 638 430 422 423 431
1808 638 431 423 424 432
1809 638 441 433 434 443
1810 638 442 433 434 443
1811 638 443 434 449 457
1812 638 443 434 449 458
1813 638 444 436 437 445
1814 638 445 437 438 446
1815 638 446 438 439 447
1816 638 447 439 440 448
1817 638 457 449 450 459
1818 638 458 449 450 459
1819 638 459 450 465 473
1820 638 459 450 465 474
1821 638 460 452 453 461
1822 638 461 453 454 462
1823 638 462 454 455 463
1824 638 463 455 456 464
1825 638 473 465 466 475
1826 638 474 465 466 475
1827 638 475 466 481 489
1828 638 475 466 481 490
1829 638 476 468 469 477
1830 638 477 469 470 478
1831 638 478 470 471 479
1832 638 479 471 472 480
1833 638 489 481 482 491
1834 638 490 481 482 491
1835 638 491 482 497 498
1836 638 491 482 497 499
1837 638 491 482 497 500
1838 638 492 484 485 493
1839 638 493 485 486 494
1840 638 494 486 487 495
1841 638 495 487 488 496
1842 638 513 505 506 515
1843 638 513 505 669 670
1844 638 513 505 669 671
1845 638 513 505 669 672
1846 638 514 505 506 515
1847 638 514 505 669 670
1848 638 514 505 669 671
1849 638 514 505 669 672
1850 638 515 506 521 529
1851 638 515 506 521 530
1852 638 516 508 509 517
1853 638 517 509 510 518
1854 638 518 510 511 519
1855 638 519 511 512 520
1856 638 529 521 522 531
1857 638 530 521 522 531
1858 638 531 522 537 545
1859 638 531 522 537 546
1860 638 532 524 525 533
1861 638 533 525 526 534
1862 638 534 526 527 535
1863 638 535 527 528 536
1864 638 545 537 538 547
1865 638 546 537 538 547
1866 638 547 538 553 561
1867 638 547 538 553 562
1868 638 548 540 541 549
1869 638 549 541 542 550
1870 638 550 542 543 551
1871 638 551 543 544 552
1872 638 561 553 554 563
1873 638 562 553 554 563
1874 638 563 554 569 577
1875 638 563 554 569 578
1876 638 564 556 557 565
1877 638 565 557 558 566
1878 638 566 558 559 567
1879 638 567 559 560 568
1880 638 577 569 570 579
1881 638 578 569 570 579
1882 638 579 570 585 593
1883 638 579 570 585 594
1884 638 580 572 573 581
1885 638 581 573 574 582
1886 638 582 574 575 583
1887 638 583 575 576 584
1888 638 593 585 586 595
1889 638 594 585 586 595
1890 638 595 586 601 609
1891 638 595 586 601 610
1892 638 596 588 589 597
1893 638 597 589 590 598
1894 638 598 590 591 599
1895 638 599 591 592 600
1896 638 609 601 602 611
1897 638 610 601 602 611
1898 638 611 602 617 625
1899 638 611 602 617 626
1900 638 612 604 605 613
1901 638 613 605 606 614
1902 638 614 606 607 615
1903 638 615 607 608 616
1904 638 625 617 618 627
1905 638 626 617 618 627
1906 638 627 618 633 641
1907 638 627 618 633 642
1908 638 628 620 621 629
1909 638 629 621 622 630
1910 638 630 622 623 631
1911 638 631 623 624 632
1912 638 641 633 634 643
1913 638 642 633 634 643
1914 638 643 634 649 657
1915 638 643 634 649 658
1916 638 644 636 637 645
1917 638 645 637 638 646
1918 638 646 638 639 647
1919 638 647 639 640 648
1920 638 657 649 650 659
1921 638 658 649 650 659
1922 638 659 650 665 666
1923 638 659 650 665 667
1924 638 659 650 665 668
1925 638 660 652 653 661
1926 638 661 653 654 662
1927 638 662 654 655 663
1928 638 663 655 656 664
1929 638 681 673 674 683
1930 638 681 673 837 838
1931 638 681 673 837 839
1932 638 681 673 837 840
1933 638 682 673 674 683
1934 638 682 673 837 838
1935 638 682 673 837 839
1936 638 682 673 837 840
1937 638 683 674 689 697
1938 638 683 674 689 698
1939 638 684 676 677 685
1940 638 685 677 678 686
1941 638 686 678 679 687
1942 638 687 679 680 688
1943 638 697 689 690 699
1944 638 698 689 690 699
1945 638 699 690 705 713
1946 638 699 690 705 714
1947 638 700 692 693 701
1948 638 701 693 694 702
1949 638 702 694 695 703
1950 638 703 695 696 704
1951 638 713 705 706 715
1952 638 714 705 706 715
1953 638 715 706 721 729
1954 638 715 706 721 730
1955 638 716 708 709 717
1956 638 717 709 710 718
1957 638 718 710 711 719
1958 638 719 711 712 720
1959 638 729 721 722 731
1960 638 730 721 722 731
1961 638 731 722 737 745
1962 638 731 722 737 746
1963 638 732 724 725 733
1964 638 733 725 726 734
1965 638 734 726 727 735
1966 638 735 727 728 736
1967 638 745 737 738 747
1968 638 746 737 738 747
1969 638 747 738 753 761
1970 638 747 738 753 762
1971 638 748 740 741 749
1972 638 749 741 742 750
1973 638 750 742 743 751
1974 638 751 743 744 752
1975 638 761 753 754 763
1976 638 762 753 754 763
1977 638 763 754 769 777
1978 638 763 754 769 778
1979 638 764 756 757 765
1980 638 765 757 758 766
1981 638 766 758 759 767
1982 638 767 759 760 768
1983 638 777 769 770 779
1984 638 778 769 770 779
1985 638 779 770 785 793
1986 638 779 770 785 794
1987 638 780 772 773 781
1988 638 781 773 774 782
1989 638 782 774 775 783
1990 638 783 775 776 784
1991 638 793 785 786 795
1992 638 794 785 786 795
1993 638 795 786 801 809
1994 638 795 786 801 810
1995 638 796 788 789 797
1996 638 797 789 790 798
1997 638 798 790 791 799
1998 638 799 791 792 800
1999 638 809 801 802 811
2000 638 810 801 802 811
2001 638 811 802 817 825
2002 638 811 802 817 826
2003 638 812 804 805 813
2004 638 813 805 806 814
2005 638 814 806 807 815
2006 638 815 807 808 816
2007 638 825 817 818 827
2008 638 826 817 818 827
2009 638 827 818 833 834
2010 638 827 818 833 835
2011 638 827 818 833 836
2012 638 828 820 821 829
2013 638 829 821 822 830
2014 638 830 822 823 831
2015 638 831 823 824 832
2016 638 849 841 842 851
2017 638 849 841 1005 1006
2018 638 849 841 1005 1007
2019 638 849 841 1005 1008
2020 638 850 841 842 851
2021 638 850 841 1005 1006
2022 638 850 841 1005 1007
2023 638 850 841 1005 1008
2024 638 851 842 857 865
2025 638 851 842 857 866
2026 638 852 844 845 853
2027 638 853 845 846 854
2028 638 854 846 847 855
2029 638 855 847 848 856
2030 638 865 857 858 867
2031 638 866 857 858 867
2032 638 867 858 873 881
2033 638 867 858 873 882
2034 638 868 860 861 869
2035 638 869 861 862 870
2036 638 870 862 863 871
2037 638 871 863 864 872
2038 638 881 873 874 883
2039 638 882 873 874 883
2040 638 883 874 889 897
2041 638 883 874 889 898
2042 638 884 876 877 885
2043 638 885 877 878 886
2044 638 886 878 879 887
2045 638 887 879 880 888
2046 638 897 889 890 899
2047 638 898 889 890 899
2048 638 899 890 905 913
2049 638 899 890 905 914
2050 638 900 892 893 901
2051 638 901 893 894 902
2052 638 902 894 895 903
2053 638 903 895 896 904
2054 638 913 905 906 915
2055 638 914 905 906 915
2056 638 915 906 921 929
2057 638 915 906 921 930
2058 638 916 908 909 917
2059 638 917 909 910 918
2060 638 918 910 911 919
2061 638 919 911 912 920
2062 638 929 921 922 931
2063 638 930 921 922 931
2064 638 931 922 937 945
2065 638 931 922 937 946
2066 638 932 924 925 933
2067 638 933 925 926 934
2068 638 934 926 927 935
2069 638 935 927 928 936
2070 638 945 937 938 947
2071 638 946 937 938 947
2072 638 947 938 953 961
2073 638 947 938 953 962
2074 638 948 940 941 949
2075 638 949 941 942 950
2076 638 950 942 943 951
2077 638 951 943 944 952
2078 638 961 953 954 963
2079 638 962 953 954 963
2080 638 963 954 969 977
2081 638 963 954 969 978
2082 638 964 956 957 965
2083 638 965 957 958 966
2084 638 966 958 959 967
2085 638 967 959 960 968
2086 638 977 969 970 979
2087 638 978 969 970 979
2088 638 979 970 985 993
2089 638 979 970 985 994
2090 638 980 972 973 981
2091 638 981 973 974 982
2092 638 982 974 975 983
2093 638 983 975 976 984
2094 638 993 985 986 995
2095 638 994 985 986 995
2096 638 995 986 1001 1002
2097 638 995 986 1001 1003
2098 638 995 986 1001 1004
2099 638 996 988 989 997
2100 638 997 989 990 998
2101 638 998 990 991 999
2102 638 999 991 992 1000
2103 638 1017 1009 1010 1019
2104 638 1017 1009 1173 1174
2105 638 1017 1009 1173 1175
2106 638 1017 1009 1173 1176
2107 638 1018 1009 1010 1019
2108 638 1018 1009 1173 1174
2109 638 1018 1009 1173 1175
2110 638 1018 1009 1173 1176
2111 638 1019 1010 1025 1033
2112 638 1019 1010 1025 1034
2113 638 1020 1012 1013 1021
2114 638 1021 1013 1014 1022
2115 638 1022 1014 1015 1023
2116 638 1023 1015 1016 1024
2117 638 1033 1025 1026 1035
2118 638 1034 1025 1026 1035
2119 638 1035 1026 1041 1049
2120 638 1035 1026 1041 1050
2121 638 1036 1028 1029 1037
2122 638 1037 1029 1030 1038
2123 638 1038 1030 1031 1039
2124 638 1039 1031 1032 1040
2125 638 1049 1041 1042 1051
2126 638 1050 1041 1042 1051
2127 638 1051 1042 1057 1065
2128 638 1051 1042 1057 1066
2129 638 1052 1044 1045 1053
2130 638 1053 1045 1046 1054
2131 638 1054 1046 1047 1055
2132 638 1055 1047 1048 1056
2133 638 1065 1057 1058 1067
2134 638 1066 1057 1058 1067
2135 638 1067 1058 1073 1081
2136 638 1067 1058 1073 1082
2137 638 1068 1060 1061 1069
2138 638 1069 1061 1062 1070
2139 638 1070 1062 1063 1071
2140 638 1071 1063 1064 1072
2141 638 1081 1073 1074 1083
2142 638 1082 1073 1074 1083
2143 638 1083 1074 1089 1097
2144 638 1083 1074 1089 1098
2145 638 1084 1076 1077 1085
2146 638 1085 1077 1078 1086
2147 638 1086 1078 1079 1087
2148 638 1087 1079 1080 1088
2149 638 1097 1089 1090 1099
2150 638 1098 1089 1090 1099
2151 638 1099 1090 1105 1113
2152 638 1099 1090 1105 1114
2153 638 1100 1092 1093 1101
2154 638 1101 1093 1094 1102
2155 638 1102 1094 1095 1103
2156 638 1103 1095 1096 1104
2157 638 1113 1105 1106 1115
2158 638 1114 1105 1106 1115
2159 638 1115 1106 1121 1129
2160 638 1115 1106 1121 1130
2161 638 1116 1108 1109 1117
2162 638 1117 1109 1110 1118
2163 638 1118 1110 1111 1119
2164 638 1119 1111 1112 1120
2165 638 1129 1121 1122 1131
2166 638 1130 1121 1122 1131
2167 638 1131 1122 1137 1145
2168 638 1131 1122 1137 1146
2169 638 1132 1124 1125 1133
2170 638 1133 1125 1126 1134
2171 638 1134 1126 1127 1135
2172 638 1135 1127 1128 1136
2173 638 1145 1137 1138 1147
2174 638 1146 1137 1138 1147
2175 638 1147 1138 1153 1161
2176 638 1147 1138 1153 1162
2177 638 1148 1140 1141 1149
2178 638 1149 1141 1142 1150
2179 638 1150 1142 1143 1151
2180 638 1151 1143 1144 1152
2181 638 1161 1153 1154 1163
2182 638 1162 1153 1154 1163
2183 638 1163 1154 1169 1170
2184 638 1163 1154 1169 1171
2185 638 1163 1154 1169 1172
2186 638 1164 1156 1157 1165
2187 638 1165 1157 1158 1166
2188 638 1166 1158 1159 1167
2189 638 1167 1159 1160 1168
2190 638 1185 1177 1178 1187
2191 638 1185 1177 1341 1342
2192 638 1185 1177 1341 1343
2193 638 1185 1177 1341 1344
2194 638 1186 1177 1178 1187
2195 638 1186 1177 1341 1342
2196 638 1186 1177 1341 1343
2197 638 1186 1177 1341 1344
2198 638 1187 1178 1193 1201
2199 638 1187 1178 1193 1202
2200 638 1188 1180 1181 1189
2201 638 1189 1181 1182 1190
2202 638 1190 1182 1183 1191
2203 638 1191 1183 1184 1192
2204 638 1201 1193 1194 1203
2205 638 1202 1193 1194 1203
2206 638 1203 1194 1209 1217
2207 638 1203 1194 1209 1218
2208 638 1204 1196 1197 1205
2209 638 1205 1197 1198 1206
2210 638 1206 1198 1199 1207
2211 638 1207 1199 1200 1208
2212 638 1217 1209 1210 1219
2213 638 1218 1209 1210 1219
2214 638 1219 1210 1225 1233
2215 638 1219 1210 1225 1234
2216 638 1220 1212 1213 1221
2217 638 1221 1213 1214 1222
2218 638 1222 1214 1215 1223
2219 638 1223 1215 1216 1224
2220 638 1233 1225 1226 1235
2221 638 1234 1225 1226 1235
2222 638 1235 1226 1241 1249
2223 638 1235 1226 1241 1250
2224 638 1236 1228 1229 1237
2225 638 1237 1229 1230 1238
2226 638 1238 1230 1231 1239
2227 638 1239 1231 1232 1240
2228 638 1249 1241 1242 1251
2229 638 1250 1241 1242 1251
2230 638 1251 1242 1257 1265
2231 638 1251 1242 1257 1266
2232 638 1252 1244 1245 1253
2233 638 1253 1245 1246 1254
2234 638 1254 1246 1247 1255
2235 638 1255 1247 1248 1256
2236 638 1265 1257 1258 1267
2237 638 1266 1257 1258 1267
2238 638 1267 1258 1273 1281
2239 638 1267 1258 1273 1282
2240 638 1268 1260 1261 1269
2241 638 1269 1261 1262 1270
2242 638 1270 1262 1263 1271
2243 638 1271 1263 1264 1272
2244 638 1281 1273 1274 1283
2245 638 1282 1273 1274 1283
2246 638 1283 1274 1289 1297
2247 638 1283 1274 1289 1298
2248 638 1284 1276 1277 1285
2249 638 1285 1277 1278 1286
2250 638 1286 1278 1279 1287
2251 638 1287 1279 1280 1288
2252 638 1297 1289 1290 1299
2253 638 1298 1289 1290 1299
2254 638 1299 1290 1305 1313
2255 638 1299 1290 1305 1314
2256 638 1300 1292 1293 1301
2257 638 1301 1293 1294 1302
2258 638 1302 1294 1295 1303
2259 638 1303 1295 1296 1304
2260 638 1313 1305 1306 1315
2261 638 1314 1305 1306 1315
2262 638 1315 1306 1321 1329
2263 638 1315 1306 1321 1330
2264 638 1316 1308 1309 1317
2265 638 1317 1309 1310 1318
2266 638 1318 1310 1311 1319
2267 638 1319 1311 1312 1320
2268 638 1329 1321 1322 1331
2269 638 1330 1321 1322 1331
2270 638 1331 1322 1337 1338
2271 638 1331 1322 1337 1339
2272 638 1331 1322 1337 1340
2273 638 1332 1324 1325 1333
2274 638 1333 1325 1326 1334
2275 638 1334 1326 1327 1335
2276 638 1335 1327 1328 1336
2277 638 1353 1345 1346 1355
2278 638 1353 1345 1509 1510
2279 638 1353 1345 1509 1511
2280 638 1353 1345 1509 1512
2281 638 1354 1345 1346 1355
2282 638 1354 1345 1509 1510
2283 638 1354 1345 1509 1511
2284 638 1354 1345 1509 1512
2285 638 1355 1346 1361 1369
2286 638 1355 1346 1361 1370
2287 638 1356 1348 1349 1357
2288 638 1357 1349 1350 1358
2289 638 1358 1350 1351 1359
2290 638 1359 1351 1352 1360
2291 638 1369 1361 1362 1371
2292 638 1370 1361 1362 1371
2293 638 1371 1362 1377 1385
2294 638 1371 1362 1377 1386
2295 638 1372 1364 1365 1373
2296 638 1373 1365 1366 1374
2297 638 1374 1366 1367 1375
2298 638 1375 1367 1368 1376
2299 638 1385 1377 1378 1387
2300 638 1386 1377 1378 1387
2301 638 1387 1378 1393 1401
2302 638 1387 1378 1393 1402
2303 638 1388 1380 1381 1389
2304 638 1389 1381 1382 1390
2305 638 1390 1382 1383 1391
2306 638 1391 1383 1384 1392
2307 638 1401 1393 1394 1403
2308 638 1402 1393 1394 1403
2309 638 1403 1394 1409 1417
2310 638 1403 1394 1409 1418
2311 638 1404 1396 1397 1405
2312 638 1405 1397 1398 1406
2313 638 1406 1398 1399 1407
2314 638 1407 1399 1400 1408
2315 638 1417 1409 1410 1419
2316 638 1418 1409 1410 1419
2317 638 1419 1410 1425 1433
2318 638 1419 1410 1425 1434
2319 638 1420 1412 1413 1421
2320 638 1421 1413 1414 1422
2321 638 1422 1414 1415 1423
2322 638 1423 1415 1416 1424
2323 638 1433 1425 1426 1435
2324 638 1434 1425 1426 1435
2325 638 1435 1426 1441 1449
2326 638 1435 1426 1441 1450
2327 638 1436 1428 1429 1437
2328 638 1437 1429 1430 1438
2329 638 1438 1430 1431 1439
2330 638 1439 1431 1432 1440
2331 638 1449 1441 1442 1451
2332 638 1450 1441 1442 1451
2333 638 1451 1442 1457 1465
2334 638 1451 1442 1457 1466
2335 638 1452 1444 1445 1453
2336 638 1453 1445 1446 1454
2337 638 1454 1446 1447 1455
2338 638 1455 1447 1448 1456
2339 638 1465 1457 1458 1467
2340 638 1466 1457 1458 1467
2341 638 1467 1458 1473 1481
2342 638 1467 1458 1473 1482
2343 638 1468 1460 1461 1469
2344 638 1469 1461 1462 1470
2345 638 1470 1462 1463 1471
2346 638 1471 1463 1464 1472
2347 638 1481 1473 1474 1483
2348 638 1482 1473 1474 1483
2349 638 1483 1474 1489 1497
2350 638 1483 1474 1489 1498
2351 638 1484 1476 1477 1485
2352 638 1485 1477 1478 1486
2353 638 1486 1478 1479 1487
2354 638 1487 1479 1480 1488
2355 638 1497 1489 1490 1499
2356 638 1498 1489 1490 1499
2357 638 1499 1490 1505 1506
2358 638 1499 1490 1505 1507
2359 638 1499 1490 1505 1508
2360 638 1500 1492 1493 1501
2361 638 1501 1493 1494 1502
2362 638 1502 1494 1495 1503
2363 638 1503 1495 1496 1504
2364 638 1521 1513 1514 1523
2365 638 1521 1513 1677 1678
2366 638 1521 1513 1677 1679
2367 638 1521 1513 1677 1680
2368 638 1522 1513 1514 1523
2369 638 1522 1513 1677 1678
2370 638 1522 1513 1677 1679
2371 638 1522 1513 1677 1680
2372 638 1523 1514 1529 1537
2373 638 1523 1514 1529 1538
2374 638 1524 1516 1517 1525
2375 638 1525 1517 1518 1526
2376 638 1526 1518 1519 1527
2377 638 1527 1519 1520 1528
2378 638 1537 1529 1530 1539
2379 638 1538 1529 1530 1539
2380 638 1539 1530 1545 1553
2381 638 1539 1530 1545 1554
2382 638 1540 1532 1533 1541
2383 638 1541 1533 1534 1542
2384 638 1542 1534 1535 1543
2385 638 1543 1535 1536 1544
2386 638 1553 1545 1546 1555
2387 638 1554 1545 1546 1555
2388 638 1555 1546 1561 1569
2389 638 1555 1546 1561 1570
2390 638 1556 1548 1549 1557
2391 638 1557 1549 1550 1558
2392 638 1558 1550 1551 1559
2393 638 1559 1551 1552 1560
2394 638 1569 1561 1562 1571
2395 638 1570 1561 1562 1571
2396 638 1571 1562 1577 1585
2397 638 1571 1562 1577 1586
2398 638 1572 1564 1565 1573
2399 638 1573 1565 1566 1574
2400 638 1574 1566 1567 1575
2401 638 1575 1567 1568 1576
2402 638 1585 1577 1578 1587
2403 638 1586 1577 1578 1587
2404 638 1587 1578 1593 1601
2405 638 1587 1578 1593 1602
2406 638 1588 1580 1581 1589
2407 638 1589 1581 1582 1590
2408 638 1590 1582 1583 1591
2409 638 1591 1583 1584 1592
2410 638 1601 1593 1594 1603
2411 638 1602 1593 1594 1603
2412 638 1603 1594 1609 1617
2413 638 1603 1594 1609 1618
2414 638 1604 1596 1597 1605
2415 638 1605 1597 1598 1606
2416 638 1606 1598 1599 1607
2417 638 1607 1599 1600 1608
2418 638 1617 1609 1610 1619
2419 638 1618 1609 1610 1619
2420 638 1619 1610 1625 1633
2421 638 1619 1610 1625 1634
2422 638 1620 1612 1613 1621
2423 638 1621 1613 1614 1622
2424 638 1622 1614 1615 1623
2425 638 1623 1615 1616 1624
2426 638 1633 1625 1626 1635
2427 638 1634 1625 1626 1635
2428 638 1635 1626 1641 1649
2429 638 1635 1626 1641 1650
2430 638 1636 1628 1629 1637
2431 638 1637 1629 1630 1638
2432 638 1638 1630 1631 1639
2433 638 1639 1631 1632 1640
2434 638 1649 1641 1642 1651
2435 638 1650 1641 1642 1651
2436 638 1651 1642 1657 1665
2437 638 1651 1642 1657 1666
2438 638 1652 1644 1645 1653
2439 638 1653 1645 1646 1654
2440 638 1654 1646 1647 1655
2441 638 1655 1647 1648 1656
2442 638 1665 1657 1658 1667
2443 638 1666 1657 1658 1667
2444 638 1667 1658 1673 1674
2445 638 1667 1658 1673 1675
2446 638 1667 1658 1673 1676
2447 638 1668 1660 1661 1669
2448 638 1669 1661 1662 1670
2449 638 1670 1662 1663 1671
2450 638 1671 1663 1664 1672
2451 681 1 2 17 25
2452 681 1 2 17 26
2453 681 2 1 165 166
2454 681 2 1 165 167
2455 681 2 1 165 168
2456 681 2 3 4 12
2457 681 2 3 8 16
2458 681 2 17 18 27
2459 681 3 2 1 9
2460 681 3 2 1 10
2461 681 3 2 17 25
2462 681 3 2 17 26
2463 681 3 4 5 13
2464 681 3 8 7 15
2465 681 4 3 2 11
2466 681 4 3 8 16
2467 681 4 5 6 14
2468 681 5 6 7 15
2469 681 6 5 4 12
2470 681 6 7 8 16
2471 681 7 6 5 13
2472 681 8 3 2 11
2473 681 8 3 4 12
2474 681 8 7 6 14
2475 681 9 1 2 17
2476 681 10 1 2 17
2477 681 17 18 33 41
2478 681 17 18 33 42
2479 681 11 2 17 18
2480 681 18 19 20 28
2481 681 18 19 24 32
2482 681 18 33 34 43
2483 681 19 18 17 25
2484 681 19 18 17 26
2485 681 19 18 33 41
2486 681 19 18 33 42
2487 681 19 20 21 29
2488 681 19 24 23 31
2489 681 20 19 18 27
2490 681 20 19 24 32
2491 681 20 21 22 30
2492 681 21 22 23 31
2493 681 22 21 20 28
2494 681 22 23 24 32
2495 681 23 22 21 29
2496 681 24 19 18 27
2497 681 24 19 20 28
2498 681 24 23 22 30
2499 681 25 17 18 33
2500 681 26 17 18 33
2501 681 33 34 49 57
2502 681 33 34 49 58
2503 681 27 18 33 34
2504 681 34 35 36 44
2505 681 34 35 40 48
2506 681 34 49 50 59
2507 681 35 34 33 41
2508 681 35 34 33 42
2509 681 35 34 49 57
2510 681 35 34 49 58
2511 681 35 36 37 45
2512 681 35 40 39 47
2513 681 36 35 34 43
2514 681 36 35 40 48
2515 681 36 37 38 46
2516 681 37 38 39 47
2517 681 38 37 36 44
2518 681 38 39 40 48
2519 681 39 38 37 45
2520 681 40 35 34 43
2521 681 40 35 36 44
2522 681 40 39 38 46
2523 681 41 33 34 49
2524 681 42 33 34 49
2525 681 49 50 65 73
2526 681 49 50 65 74
2527 681 43 34 49 50
2528 681 50 51 52 60
2529 681 50 51 56 64
2530 681 50 65 66 75
2531 681 51 50 49 57
2532 681 51 50 49 58
2533 681 51 50 65 73
2534 681 51 50 65 74
2535 681 51 52 53 61
2536 681 51 56 55 63
2537 681 52 51 50 59
2538 681 52 51 56 64
2539 681 52 53 54 62
2540 681 53 54 55 63
2541 681 54 53 52 60
2542 681 54 55 56 64
2543 681 55 54 53 61
2544 681 56 51 50 59
2545 681 56 51 52 60
2546 681 56 55 54 62
2547 681 57 49 50 65
2548 681 58 49 50 65
2549 681 65 66 81 89
2550 681 65 66 81 90
2551 681 59 50 65 66
2552 681 66 67 68 76
2553 681 66 67 72 80
2554 681 66 81 82 91
2555 681 67 66 65 73
2556 681 67 66 65 74
2557 681 67 66 81 89
2558 681 67 66 81 90
2559 681 67 68 69 77
2560 681 67 72 71 79
2561 681 68 67 66 75
2562 681 68 67 72 80
2563 681 68 69 70 78
2564 681 69 70 71 79
2565 681 70 69 68 76
2566 681 70 71 72 80
2567 681 71 70 69 77
2568 681 72 67 66 75
2569 681 72 67 68 76
2570 681 72 71 70 78
2571 681 73 65 66 81
2572 681 74 65 66 81
2573 681 81 82 97 105
2574 681 81 82 97 106
2575 681 75 66 81 82
2576 681 82 83 84 92
2577 681 82 83 88 96
2578 681 82 97 98 107
2579 681 83 82 81 89
2580 681 83 82 81 90
2581 681 83 82 97 105
2582 681 83 82 97 106
2583 681 83 84 85 93
2584 681 83 88 87 95
2585 681 84 83 82 91
2586 681 84 83 88 96
2587 681 84 85 86 94
2588 681 85 86 87 95
2589 681 86 85 84 92
2590 681 86 87 88 96
2591 681 87 86 85 93
2592 681 88 83 82 91
2593 681 88 83 84 92
2594 681 88 87 86 94
2595 681 89 81 82 97
2596 681 90 81 82 97
2597 681 97 98 113 121
2598 681 97 98 113 122
2599 681 91 82 97 98
2600 681 98 99 100 108
2601 681 98 99 104 112
2602 681 98 113 114 123
2603 681 99 98 97 105
2604 681 99 98 97 106
2605 681 99 98 113 121
2606 681 99 98 113 122
2607 681 99 100 101 109
2608 681 99 104 103 111
2609 681 100 99 98 107
2610 681 100 99 104 112
2611 681 100 101 102 110
2612 681 101 102 103 111
2613 681 102 101 100 108
2614 681 102 103 104 112
2615 681 103 102 101 109
2616 681 104 99 98 107
2617 681 104 99 100 108
2618 681 104 103 102 110
2619 681 105 97 98 113
2620 681 106 97 98 113
2621 681 113 114 129 137
2622 681 113 114 129 138
2623 681 107 98 113 114
2624 681 114 115 116 124
2625 681 114 115 120 128
2626 681 114 129 130 139
2627 681 115 114 113 121
2628 681 115 114 113 122
2629 681 115 114 129 137
2630 681 115 114 129 138
2631 681 115 116 117 125
2632 681 115 120 119 127
2633 681 116 115 114 123
2634 681 116 115 120 128
2635 681 116 117 118 126
2636 681 117 118 119 127
2637 681 118 117 116 124
2638 681 118 119 120 128
2639 681 119 118 117 125
2640 681 120 115 114 123
2641 681 120 115 116 124
2642 681 120 119 118 126
2643 681 121 113 114 129
2644 681 122 113 114 129
2645 681 129 130 145 153
2646 681 129 130 145 154
2647 681 123 114 129 130
2648 681 130 131 132 140
2649 681 130 131 136 144
2650 681 130 145 146 155
2651 681 131 130 129 137
2652 681 131 130 129 138
2653 681 131 130 145 153
2654 681 131 130 145 154
2655 681 131 132 133 141
2656 681 131 136 135 143
2657 681 132 131 130 139
2658 681 132 131 136 144
2659 681 132 133 134 142
2660 681 133 134 135 143
2661 681 134 133 132 140
2662 681 134 135 136 144
2663 681 135 134 133 141
2664 681 136 131 130 139
2665 681 136 131 132 140
2666 681 136 135 134 142
2667 681 137 129 130 145
2668 681 138 129 130 145
2669 681 145 146 161 162
2670 681 145 146 161 163
2671 681 145 146 161 164
2672 681 139 130 145 146
2673 681 146 147 148 156
2674 681 146 147 152 160
2675 681 147 146 145 153
2676 681 147 146 145 154
2677 681 147 146 161 162
2678 681 147 146 161 163
2679 681 147 146 161 164
2680 681 147 148 149 157
2681 681 147 152 151 159
2682 681 148 147 146 155
2683 681 148 147 152 160
2684 681 148 149 150 158
2685 681 149 150 151 159
2686 681 150 149 148 156
2687 681 150 151 152 160
2688 681 151 150 149 157
2689 681 152 147 146 155
2690 681 152 147 148 156
2691 681 152 151 150 158
2692 681 153 145 146 161
2693 681 154 145 146 161
2694 681 11 2 1 165
2695 681 169 170 185 193
2696 681 169 170 185 194
2697 681 170 169 333 334
2698 681 170 169 333 335
2699 681 170 169 333 336
2700 681 170 171 172 180
2701 681 170 171 176 184
2702 681 170 185 186 195
2703 681 171 170 169 177
2704 681 171 170 169 178
2705 681 171 170 185 193
2706 681 171 170 185 194
2707 681 171 172 173 181
2708 681 171 176 175 183
2709 681 172 171 170 179
2710 681 172 171 176 184
2711 681 172 173 174 182
2712 681 173 174 175 183
2713 681 174 173 172 180
2714 681 174 175 176 184
2715 681 175 174 173 181
2716 681 176 171 170 179
2717 681 176 171 172 180
2718 681 176 175 174 182
2719 681 177 169 170 185
2720 681 178 169 170 185
2721 681 185 186 201 209
2722 681 185 186 201 210
2723 681 179 170 185 186
2724 681 186 187 188 196
2725 681 186 187 192 200
2726 681 186 201 202 211
2727 681 187 186 185 193
2728 681 187 186 185 194
2729 681 187 186 201 209
2730 681 187 186 201 210
2731 681 187 188 189 197
2732 681 187 192 191 199
2733 681 188 187 186 195
2734 681 188 187 192 200
2735 681 188 189 190 198
2736 681 189 190 191 199
2737 681 190 189 188 196
2738 681 190 191 192 200
2739 681 191 190 189 197
2740 681 192 187 186 195
2741 681 192 187 188 196
2742 681 192 191 190 198
2743 681 193 185 186 201
2744 681 194 185 186 201
2745 681 201 202 217 225
2746 681 201 202 217 226
2747 681 195 186 201 202
2748 681 202 203 204 212
2749 681 202 203 208 216
2750 681 202 217 218 227
2751 681 203 202 201 209
2752 681 203 202 201 210
2753 681 203 202 217 225
2754 681 203 202 217 226
2755 681 203 204 205 213
2756 681 203 208 207 215
2757 681 204 203 202 211
2758 681 204 203 208 216
2759 681 204 205 206 214
2760 681 205 206 207 215
2761 681 206 205 204 212
2762 681 206 207 208 216
2763 681 207 206 205 213
2764 681 208 203 202 211
2765 681 208 203 204 212
2766 681 208 207 206 214
2767 681 209 201 202 217
2768 681 210 201 202 217
2769 681 217 218 233 241
2770 681 217 218 233 242
2771 681 211 202 217 218
2772 681 218 219 220 228
2773 681 218 219 224 232
2774 681 218 233 234 243
2775 681 219 218 217 225
2776 681 219 218 217 226
2777 681 219 218 233 241
2778 681 219 218 233 242
2779 681 219 220 221 229
2780 681 219 224 223 231
2781 681 220 219 218 227
2782 681 220 219 224 232
2783 681 220 221 222 230
2784 681 221 222 223 231
2785 681 222 221 220 228
2786 681 222 223 224 232
2787 681 223 222 221 229
2788 681 224 219 218 227
2789 681 224 219 220 228
2790 681 224 223 222 230
2791 681 225 217 218 233
2792 681 226 217 218 233
2793 681 233 234 249 257
2794 681 233 234 249 258
2795 681 227 218 233 234
2796 681 234 235 236 244
2797 681 234 235 240 248
2798 681 234 249 250 259
2799 681 235 234 233 241
2800 681 235 234 233 242
2801 681 235 234 249 257
2802 681 235 234 249 258
2803 681 235 236 237 245
2804 681 235 240 239 247
2805 681 236 235 234 243
2806 681 236 235 240 248
2807 681 236 237 238 246
2808 681 237 238 239 247
2809 681 238 237 236 244
2810 681 238 239 240 248
2811 681 239 238 237 245
2812 681 240 235 234 243
2813 681 240 235 236 244
2814 681 240 239 238 246
2815 681 241 233 234 249
2816 681 242 233 234 249
2817 681 249 250 265 273
2818 681 249 250 265 274
2819 681 243 234 249 250
2820 681 250 251 252 260
2821 681 250 251 256 264
2822 681 250 265 266 275
2823 681 251 250 249 257
2824 681 251 250 249 258
2825 681 251 250 265 273
2826 681 251 250 265 274
2827 681 251 252 253 261
2828 681 251 256 255 263
2829 681 252 251 250 259
2830 681 252 251 256 264
2831 681 252 253 254 262
2832 681 253 254 255 263
2833 681 254 253 252 260
2834 681 254 255 256 264
2835 681 255 254 253 261
2836 681 256 251 250 259
2837 681 256 251 252 260
2838 681 256 255 254 262
2839 681 257 249 250 265
2840 681 258 249 250 265
2841 681 265 266 281 289
2842 681 265 266 281 290
2843 681 259 250 265 266
2844 681 266 267 268 276
2845 681 266 267 272 280
2846 681 266 281 282 291
2847 681 267 266 265 273
2848 681 267 266 265 274
2849 681 267 266 281 289
2850 681 267 266 281 290
2851 681 267 268 269 277
2852 681 267 272 271 279
2853 681 268 267 266 275
2854 681 268 267 272 280
2855 681 268 269 270 278
2856 681 269 270 271 279
2857 681 270 269 268 276
2858 681 270 271 272 280
2859 681 271 270 269 277
2860 681 272 267 266 275
2861 681 272 267 268 276
2862 681 272 271 270 278
2863 681 273 265 266 281
2864 681 274 265 266 281
2865 681 281 282 297 305
2866 681 281 282 297 306
2867 681 275 266 281 282
2868 681 282 283 284 292
2869 681 282 283 288 296
2870 681 282 297 298 307
2871 681 283 282 281 289
2872 681 283 282 281 290
2873 681 283 282 297 305
2874 681 283 282 297 306
2875 681 283 284 285 293
2876 681 283 288 287 295
2877 681 284 283 282 291
2878 681 284 283 288 296
2879 681 284 285 286 294
2880 681 285 286 287 295
2881 681 286 285 284 292
2882 681 286 287 288 296
2883 681 287 286 285 293
2884 681 288 283 282 291
2885 681 288 283 284 292
2886 681 288 287 286 294
2887 681 289 281 282 297
2888 681 290 281 282 297
2889 681 297 298 313 321
2890 681 297 298 313 322
2891 681 291 282 297 298
2892 681 298 299 300 308
2893 681 298 299 304 312
2894 681 298 313 314 323
2895 681 299 298 297 305
2896 681 299 298 297 306
2897 681 299 298 313 321
2898 681 299 298 313 322
2899 681 299 300 301 309
2900 681 299 304 303 311
2901 681 300 299 298 307
2902 681 300 299 304 312
2903 681 300 301 302 310
2904 681 301 302 303 311
2905 681 302 301 300 308
2906 681 302 303 304 312
2907 681 303 302 301 309
2908 681 304 299 298 307
2909 681 304 299 300 308
2910 681 304 303 302 310
2911 681 305 297 298 313
2912 681 306 297 298 313
2913 681 313 314 329 330
2914 681 313 314 329 331
2915 681 313 314 329 332
2916 681 307 298 313 314
2917 681 314 315 316 324
2918 681 314 315 320 328
2919 681 315 314 313 321
2920 681 315 314 313 322
2921 681 315 314 329 330
2922 681 315 314 329 331
2923 681 315 314 329 332
2924 681 315 316 317 325
2925 681 315 320 319 327
2926 681 316 315 314 323
2927 681 316 315 320 328
2928 681 316 317 318 326
2929 681 317 318 319 327
2930 681 318 317 316 324
2931 681 318 319 320 328
2932 681 319 318 317 325
2933 681 320 315 314 323
2934 681 320 315 316 324
2935 681 320 319 318 326
2936 681 321 313 314 329
2937 681 322 313 314 329
2938 681 179 170 169 333
2939 681 337 338 353 361
2940 681 337 338 353 362
2941 681 338 337 501 502
2942 681 338 337 501 503
2943 681 338 337 501 504
2944 681 338 339 340 348
2945 681 338 339 344 352
2946 681 338 353 354 363
2947 681 339 338 337 345
2948 681 339 338 337 346
2949 681 339 338 353 361
2950 681 339 338 353 362
2951 681 339 340 341 349
2952 681 339 344 343 351
2953 681 340 339 338 347
2954 681 340 339 344 352
2955 681 340 341 342 350
2956 681 341 342 343 351
2957 681 342 341 340 348
2958 681 342 343 344 352
2959 681 343 342 341 349
2960 681 344 339 338 347
2961 681 344 339 340 348
2962 681 344 343 342 350
2963 681 345 337 338 353
2964 681 346 337 338 353
2965 681 353 354 369 377
2966 681 353 354 369 378
2967 681 347 338 353 354
2968 681 354 355 356 364
2969 681 354 355 360 368
2970 681 354 369 370 379
2971 681 355 354 353 361
2972 681 355 354 353 362
2973 681 355 354 369 377
2974 681 355 354 369 378
2975 681 355 356 357 365
2976 681 355 360 359 367
2977 681 356 355 354 363
2978 681 356 355 360 368
2979 681 356 357 358 366
2980 681 357 358 359 367
2981 681 358 357 356 364
2982 681 358 359 360 368
2983 681 359 358 357 365
2984 681 360 355 354 363
2985 681 360 355 356 364
2986 681 360 359 358 366
2987 681 361 353 354 369
2988 681 362 353 354 369
2989 681 369 370 385 393
2990 681 369 370 385 394
2991 681 363 354 369 370
2992 681 370 371 372 380
2993 681 370 371 376 384
2994 681 370 385 386 395
2995 681 371 370 369 377
2996 681 371 370 369 378
2997 681 371 370 385 393
2998 681 371 370 385 394
2999 681 371 372 373 381
3000 681 371 376 375 383
3001 681 372 371 370 379
3002 681 372 371 376 384
3003 681 372 373 374 382
3004 681 373 374 375 383
3005 681 374 373 372 380
3006 681 374 375 376 384
3007 681 375 374 373 381
3008 681 376 371 370 379
3009 681 376 371 372 380
3010 681 376 375 374 382
3011 681 377 369 370 385
3012 681 378 369 370 385
3013 681 385 386 401 409
3014 681 385 386 401 410
3015 681 379 370 385 386
3016 681 386 387 388 396
3017 681 386 387 392 400
3018 681 386 401 402 411
3019 681 387 386 385 393
3020 681 387 386 385 394
3021 681 387 386 401 409
3022 681 387 386 401 410
3023 681 387 388 389 397
3024 681 387 392 391 399
3025 681 388 387 386 395
3026 681 388 387 392 400
3027 681 388 389 390 398
3028 681 389 390 391 399
3029 681 390 389 388 396
3030 681 390 391 392 400
3031 681 391 390 389 397
3032 681 392 387 386 395
3033 681 392 387 388 396
3034 681 392 391 390 398
3035 681 393 385 386 401
3036 681 394 385 386 401
3037 681 401 402 417 425
3038 681 401 402 417 426
3039 681 395 386 401 402
3040 681 402 403 404 412
3041 681 402 403 408 416
3042 681 402 417 418 427
3043 681 403 402 401 409
3044 681 403 402 401 410
3045 681 403 402 417 425
3046 681 403 402 417 426
3047 681 403 404 405 413
3048 681 403 408 407 415
3049 681 404 403 402 411
3050 681 404 403 408 416
3051 681 404 405 406 414
3052 681 405 406 407 415
3053 681 406 405 404 412
3054 681 406 407 408 416
3055 681 407 406 405 413
3056 681 408 403 402 411
3057 681 408 403 404 412
3058 681 408 407 406 414
3059 681 409 401 402 417
3060 681 410 401 402 417
3061 681 417 418 433 441
3062 681 417 418 433 442
3063 681 411 402 417 418
3064 681 418 419 420 428
3065 681 418 419 424 432
3066 681 418 433 434 443
3067 681 419 418 417 425
3068 681 419 418 417 426
3069 681 419 418 433 441
3070 681 419 418 433 442
3071 681 419 420 421 429
3072 681 419 424 423 431
3073 681 420 419 418 427
3074 681 420 419 424 432
3075 681 420 421 422 430
3076 681 421 422 423 431
3077 681 422 421 420 428
3078 681 422 423 424 432
3079 681 423 422 421 429
3080 681 424 419 418 427
3081 681 424 419 420 428
3082 681 424 423 422 430
3083 681 425 417 418 433
3084 681 426 417 418 433
3085 681 433 434 449 457
3086 681 433 434 449 458
3087 681 427 418 433 434
3088 681 434 435 436 444
3089 681 434 435 440 448
3090 681 434 449 450 459
3091 681 435 434 433 441
3092 681 435 434 433 442
3093 681 435 434 449 457
3094 681 435 434 449 458
3095 681 435 436 437 445
3096 681 435 440 439 447
3097 681 436 435 434 443
3098 681 436 435 440 448
3099 681 436 437 438 446
3100 681 437 438 439 447
3101 681 438 437 436 444
3102 681 438 439 440 448
3103 681 439 438 437 445
3104 681 440 435 434 443
3105 681 440 435 436 444
3106 681 440 439 438 446
3107 681 441 433 434 449
3108 681 442 433 434 449
3109 681 449 450 465 473
3110 681 449 450 465 474
3111 681 443 434 449 450
3112 681 450 451 452 460
3113 681 450 451 456 464
3114 681 450 465 466 475
3115 681 451 450 449 457
3116 681 451 450 449 458
3117 681 451 450 465 473
3118 681 451 450 465 474
3119 681 451 452 453 461
3120 681 451 456 455 463
3121 681 452 451 450 459
3122 681 452 451 456 464
3123 681 452 453 454 462
3124 681 453 454 455 463
3125 681 454 453 452 460
3126 681 454 455 456 464
3127 681 455 454 453 461
3128 681 456 451 450 459
3129 681 456 451 452 460
3130 681 456 455 454 462
3131 681 457 449 450 465
3132 681 458 449 450 465
3133 681 465 466 481 489
3134 681 465 466 481 490
3135 681 459 450 465 466
3136 681 466 467 468 476
3137 681 466 467 472 480
3138 681 466 481 482 491
3139 681 467 466 465 473
3140 681 467 466 465 474
3141 681 467 466 481 489
3142 681 467 466 481 490
3143 681 467 468 469 477
3144 681 467 472 471 479
3145 681 468 467 466 475
3146 681 468 467 472 480
3147 681 468 469 470 478
3148 681 469 470 471 479
3149 681 470 469 468 476
3150 681 470 471 472 480
3151 681 471 470 469 477
3152 681 472 467 466 475
3153 681 472 467 468 476
3154 681 472 471 470 478
3155 681 473 465 466 481
3156 681 474 465 466 481
3157 681 481 482 497 498
3158 681 481 482 497 499
3159 681 481 482 497 500
3160 681 475 466 481 482
3161 681 482 483 484 492
3162 681 482 483 488 496
3163 681 483 482 481 489
3164 681 483 482 481 490
3165 681 483 482 497 498
3166 681 483 482 497 499
3167 681 483 482 497 500
3168 681 483 484 485 493
3169 681 483 488 487 495
3170 681 484 483 482 491
3171 681 484 483 488 496
3172 681 484 485 486 494
3173 681 485 486 487 495
3174 681 486 485 484 492
3175 681 486 487 488 496
3176 681 487 486 485 493
3177 681 488 483 482 491
3178 681 488 483 484 492
3179 681 488 487 486 494
3180 681 489 481 482 497
3181 681 490 481 482 497
3182 681 347 338 337 501
3183 681 505 506 521 529
3184 681 505 506 521 530
3185 681 506 505 669 670
3186 681 506 505 669 671
3187 681 506 505 669 672
3188 681 506 507 508 516
3189 681 506 507 512 520
3190 681 506 521 522 531
3191 681 507 506 505 513
3192 681 507 506 505 514
3193 681 507 506 521 529
3194 681 507 506 521 530
3195 681 507 508 509 517
3196 681 507 512 511 519
3197 681 508 507 506 515
3198 681 508 507 512 520
3199 681 508 509 510 518
3200 681 509 510 511 519
3201 681 510 509 508 516
3202 681 510 511 512 520
3203 681 511 510 509 517
3204 681 512 507 506 515
3205 681 512 507 508 516
3206 681 512 511 510 518
3207 681 513 505 506 521
3208 681 514 505 506 521
3209 681 521 522 537 545
3210 681 521 522 537 546
3211 681 515 506 521 522
3212 681 522 523 524 532
3213 681 522 523 528 536
3214 681 522 537 538 547
3215 681 523 522 521 529
3216 681 523 522 521 530
3217 681 523 522 537 545
3218 681 523 522 537 546
3219 681 523 524 525 533
3220 681 523 528 527 535
3221 681 524 523 522 531
3222 681 524 523 528 536
3223 681 524 525 526 534
3224 681 525 526 527 535
3225 681 526 525 524 532
3226 681 526 527 528 536
3227 681 527 526 525 533
3228 681 528 523 522 531
3229 681 528 523 524 532
3230 681 528 527 526 534
3231 681 529 521 522 537
3232 681 530 521 522 537
3233 681 537 538 553 561
3234 681 537 538 553 562
3235 681 531 522 537 538
3236 681 538 539 540 548
3237 681 538 539 544 552
3238 681 538 553 554 563
3239 681 539 538 537 545
3240 681 539 538 537 546
3241 681 539 538 553 561
3242 681 539 538 553 562
3243 681 539 540 541 549
3244 681 539 544 543 551
3245 681 540 539 538 547
3246 681 540 539 544 552
3247 681 540 541 542 550
3248 681 541 542 543 551
3249 681 542 541 540 548
3250 681 542 543 544 552
3251 681 543 542 541 549
3252 681 544 539 538 547
3253 681 544 539 540 548
3254 681 544 543 542 550
3255 681 545 537 538 553
3256 681 546 537 538 553
3257 681 553 554 569 577
3258 681 553 554 569 578
3259 681 547 538 553 554
3260 681 554 555 556 564
3261 681 554 555 560 568
3262 681 554 569 570 579
3263 681 555 554 553 561
3264 681 555 554 553 562
3265 681 555 554 569 577
3266 681 555 554 569 578
3267 681 555 556 557 565
3268 681 555 560 559 567
3269 681 556 555 554 563
3270 681 556 555 560 568
3271 681 556 557 558 566
3272 681 557 558 559 567
3273 681 558 557 556 564
3274 681 558 559 560 568
3275 681 559 558 557 565
3276 681 560 555 554 563
3277 681 560 555 556 564
3278 681 560 559 558 566
3279 681 561 553 554 569
3280 681 562 553 554 569
3281 681 569 570 585 593
3282 681 569 570 585 594
3283 681 563 554 569 570
3284 681 570 571 572 580
3285 681 570 571 576 584
3286 681 570 585 586 595
3287 681 571 570 569 577
3288 681 571 570 569 578
3289 681 571 570 585 593
3290 681 571 570 585 594
3291 681 571 572 573 581
3292 681 571 576 575 583
3293 681 572 571 570 579
3294 681 572 571 576 584
3295 681 572 573 574 582
3296 681 573 574 575 583
3297 681 574 573 572 580
3298 681 574 575 576 584
3299 681 575 574 573 581
3300 681 576 571 570 579
3301 681 576 571 572 580
3302 681 576 575 574 582
3303 681 577 569 570 585
3304 681 578 569 570 585
3305 681 585 586 601 609
3306 681 585 586 601 610
3307 681 579 570 585 586
3308 681 586 587 588 596
3309 681 586 587 592 600
3310 681 586 601 602 611
3311 681 587 586 585 593
3312 681 587 586 585 594
3313 681 587 586 601 609
3314 681 587 586 601 610
3315 681 587 588 589 597
3316 681 587 592 591 599
3317 681 588 587 586 595
3318 681 588 587 592 600
3319 681 588 589 590 598
3320 681 589 590 591 599
3321 681 590 589 588 596
3322 681 590 591 592 600
3323 681 591 590 589 597
3324 681 592 587 586 595
3325 681 592 587 588 596
3326 681 592 591 590 598
3327 681 593 585 586 601
3328 681 594 585 586 601
3329 681 601 602 617 625
3330 681 601 602 617 626
3331 681 595 586 601 602
3332 681 602 603 604 612
3333 681 602 603 608 616
3334 681 602 617 618 627
3335 681 603 602 601 609
3336 681 603 602 601 610
3337 681 603 602 617 625
3338 681 603 602 617 626
3339 681 603 604 605 613
3340 681 603 608 607 615
3341 681 604 603 602 611
3342 681 604 603 608 616
3343 681 604 605 606 614
3344 681 605 606 607 615
3345 681 606 605 604 612
3346 681 606 607 608 616
3347 681 607 606 605 613
3348 681 608 603 602 611
3349 681 608 603 604 612
3350 681 608 607 606 614
3351 681 609 601 602 617
3352 681 610 601 602 617
3353 681 617 618 633 641
3354 681 617 618 633 642
3355 681 611 602 617 618
3356 681 618 619 620 628
3357 681 618 619 624 632
3358 681 618 633 634 643
3359 681 619 618 617 625
3360 681 619 618 617 626
3361 681 619 618 633 641
3362 681 619 618 633 642
3363 681 619 620 621 629
3364 681 619 624 623 631
3365 681 620 619 618 627
3366 681 620 619 624 632
3367 681 620 621 622 630
3368 681 621 622 623 631
3369 681 622 621 620 628
3370 681 622 623 624 632
3371 681 623 622 621 629
3372 681 624 619 618 627
3373 681 624 619 620 628
3374 681 624 623 622 630
3375 681 625 617 618 633
3376 681 626 617 618 633
3377 681 633 634 649 657
3378 681 633 634 649 658
3379 681 627 618 633 634
3380 681 634 635 636 644
3381 681 634 635 640 648
3382 681 634 649 650 659
3383 681 635 634 633 641
3384 681 635 634 633 642
3385 681 635 634 649 657
3386 681 635 634 649 658
3387 681 635 636 637 645
3388 681 635 640 639 647
3389 681 636 635 634 643
3390 681 636 635 640 648
3391 681 636 637 638 646
3392 681 637 638 639 647
3393 681 638 637 636 644
3394 681 638 639 640 648
3395 681 639 638 637 645
3396 681 640 635 634 643
3397 681 640 635 636 644
3398 681 640 639 638 646
3399 681 641 633 634 649
3400 681 642 633 634 649
3401 681 649 650 665 666
3402 681 649 650 665 667
3403 681 649 650 665 668
3404 681 643 634 649 650
3405 681 650 651 652 660
3406 681 650 651 656 664
3407 681 651 650 649 657
3408 681 651 650 649 658
3409 681 651 650 665 666
3410 681 651 650 665 667
3411 681 651 650 665 668
3412 681 651 652 653 661
3413 681 651 656 655 663
3414 681 652 651 650 659
3415 681 652 651 656 664
3416 681 652 653 654 662
3417 681 653 654 655 663
3418 681 654 653 652 660
3419 681 654 655 656 664
3420 681 655 654 653 661
3421 681 656 651 650 659
3422 681 656 651 652 660
3423 681 656 655 654 662
3424 681 657 649 650 665
3425 681 658 649 650 665
3426 681 515 506 505 669
3427 681 673 674 689 697
3428 681 673 674 689 698
3429 681 674 673 837 838
3430 681 674 673 837 839
3431 681 674 673 837 840
3432 681 674 675 676 684
3433 681 674 675 680 688
3434 681 674 689 690 699
3435 681 675 674 673 681
3436 681 675 674 673 682
3437 681 675 674 689 697
3438 681 675 674 689 698
3439 681 675 676 677 685
3440 681 675 680 679 687
3441 681 676 675 674 683
3442 681 676 675 680 688
3443 681 676 677 678 686
3444 681 677 678 679 687
3445 681 678 677 676 684
3446 681 678 679 680 688
3447 681 679 678 677 685
3448 681 680 675 674 683
3449 681 680 675 676 684
3450 681 680 679 678 686
3451 681 681 673 674 689
3452 681 682 673 674 689
3453 681 689 690 705 713
3454 681 689 690 705 714
3455 681 683 674 689 690
3456 681 690 691 692 700
3457 681 690 691 696 704
3458 681 690 705 706 715
3459 681 691 690 689 697
3460 681 691 690 689 698
3461 681 691 690 705 713
3462 681 691 690 705 714
3463 681 691 692 693 701
3464 681 691 696 695 703
3465 681 692 691 690 699
3466 681 692 691 696 704
3467 681 692 693 694 702
3468 681 693 694 695 703
3469 681 694 693 692 700
3470 681 694 695 696 704
3471 681 695 694 693 701
3472 681 696 691 690 699
3473 681 696 691 692 700
3474 681 696 695 694 702
3475 681 697 689 690 705
3476 681 698 689 690 705
3477 681 705 706 721 729
3478 681 705 706 721 730
3479 681 699 690 705 706
3480 681 706 707 708 716
3481 681 706 707 712 720
3482 681 706 721 722 731
3483 681 707 706 705 713
3484 681 707 706 705 714
3485 681 707 706 721 729
3486 681 707 706 721 730
3487 681 707 708 709 717
3488 681 707 712 711 719
3489 681 708 707 706 715
3490 681 708 707 712 720
3491 681 708 709 710 718
3492 681 709 710 711 719
3493 681 710 709 708 716
3494 681 710 711 712 720
3495 681 711 710 709 717
3496 681 712 707 706 715
3497 681 712 707 708 716
3498 681 712 711 710 718
3499 681 713 705 706 721
3500 681 714 705 706 721
3501 681 721 722 737 745
3502 681 721 722 737 746
3503 681 715 706 721 722
3504 681 722 723 724 732
3505 681 722 723 728 736
3506 681 722 737 738 747
3507 681 723 722 721 729
3508 681 723 722 721 730
3509 681 723 722 737 745
3510 681 723 722 737 746
3511 681 723 724 725 733
3512 681 723 728 727 735
3513 681 724 723 722 731
3514 681 724 723 728 736
3515 681 724 725 726 734
3516 681 725 726 727 735
3517 681 726 725 724 732
3518 681 726 727 728 736
3519 681 727 726 725 733
3520 681 728 723 722 731
3521 681 728 723 724 732
3522 681 728 727 726 734
3523 681 729 721 722 737
3524 681 730 721 722 737
3525 681 737 738 753 761
3526 681 737 738 753 762
3527 681 731 722 737 738
3528 681 738 739 740 748
3529 681 738 739 744 752
3530 681 738 753 754 763
3531 681 739 738 737 745
3532 681 739 738 737 746
3533 681 739 738 753 761
3534 681 739 738 753 762
3535 681 739 740 741 749
3536 681 739 744 743 751
3537 681 740 739 738 747
3538 681 740 739 744 752
3539 681 740 741 742 750
3540 681 741 742 743 751
3541 681 742 741 740 748
3542 681 742 743 744 752
3543 681 743 742 741 749
3544 681 744 739 738 747
3545 681 744 739 740 748
3546 681 744 743 742 750
3547 681 745 737 738 753
3548 681 746 737 738 753
3549 681 753 754 769 777
3550 681 753 754 769 778
3551 681 747 738 753 754
3552 681 754 755 756 764
3553 681 754 755 760 768
3554 681 754 769 770 779
3555 681 755 754 753 761
3556 681 755 754 753 762
3557 681 755 754 769 777
3558 681 755 754 769 778
3559 681 755 756 757 765
3560 681 755 760 759 767
3561 681 756 755 754 763
3562 681 756 755 760 768
3563 681 756 757 758 766
3564 681 757 758 759 767
3565 681 758 757 756 764
3566 681 758 759 760 768
3567 681 759 758 757 765
3568 681 760 755 754 763
3569 681 760 755 756 764
3570 681 760 759 758 766
3571 681 761 753 754 769
3572 681 762 753 754 769
3573 681 769 770 785 793
3574 681 769 770 785 794
3575 681 763 754 769 770
3576 681 770 771 772 780
3577 681 770 771 776 784
3578 681 770 785 786 795
3579 681 771 770 769 777
3580 681 771 770 769 778
3581 681 771 770 785 793
3582 681 771 770 785 794
3583 681 771 772 773 781
3584 681 771 776 775 783
3585 681 772 771 770 779
3586 681 772 771 776 784
3587 681 772 773 774 782
3588 681 773 774 775 783
3589 681 774 773 772 780
3590 681 774 775 776 784
3591 681 775 774 773 781
3592 681 776 771 770 779
3593 681 776 771 772 780
3594 681 776 775 774 782
3595 681 777 769 770 785
3596 681 778 769 770 785
3597 681 785 786 801 809
3598 681 785 786 801 810
3599 681 779 770 785 786
3600 681 786 787 788 796
3601 681 786 787 792 800
3602 681 786 801 802 811
3603 681 787 786 785 793
3604 681 787 786 785 794
3605 681 787 786 801 809
3606 681 787 786 801 810
3607 681 787 788 789 797
3608 681 787 792 791 799
3609 681 788 787 786 795
3610 681 788 787 792 800
3611 681 788 789 790 798
3612 681 789 790 791 799
3613 681 790 789 788 796
3614 681 790 791 792 800
3615 681 791 790 789 797
3616 681 792 787 786 795
3617 681 792 787 788 796
3618 681 792 791 790 798
3619 681 793 785 786 801
3620 681 794 785 786 801
3621 681 801 802 817 825
3622 681 801 802 817 826
3623 681 795 786 801 802
3624 681 802 803 804 812
3625 681 802 803 808 816
3626 681 802 817 818 827
3627 681 803 802 801 809
3628 681 803 802 801 810
3629 681 803 802 817 825
3630 681 803 802 817 826
3631 681 803 804 805 813
3632 681 803 808 807 815
3633 681 804 803 802 811
3634 681 804 803 808 816
3635 681 804 805 806 814
3636 681 805 806 807 815
3637 681 806 805 804 812
3638 681 806 807 808 816
3639 681 807 806 805 813
3640 681 808 803 802 811
3641 681 808 803 804 812
3642 681 808 807 806 814
3643 681 809 801 802 817
3644 681 810 801 802 817
3645 681 817 818 833 834
3646 681 817 818 833 835
3647 681 817 818 833 836
3648 681 811 802 817 818
3649 681 818 819 820 828
3650 681 818 819 824 832
3651 681 819 818 817 825
3652 681 819 818 817 826
3653 681 819 818 833 834
3654 681 819 818 833 835
3655 681 819 818 833 836
3656 681 819 820 821 829
3657 681 819 824 823 831
3658 681 820 819 818 827
3659 681 820 819 824 832
3660 681 820 821 822 830
3661 681 821 822 823 831
3662 681 822 821 820 828
3663 681 822 823 824 832
3664 681 823 822 821 829
3665 681 824 819 818 827
3666 681 824 819 820 828
3667 681 824 823 822 830
3668 681 825 817 818 833
3669 681 826 817 818 833
3670 681 683 674 673 837
3671 681 841 842 857 865
3672 681 841 842 857 866
3673 681 842 841 1005 1006
3674 681 842 841 1005 1007
3675 681 842 841 1005 1008
3676 681 842 843 844 852
3677 681 842 843 848 856
3678 681 842 857 858 867
3679 681 843 842 841 849
3680 681 843 842 841 850
3681 681 843 842 857 865
3682 681 843 842 857 866
3683 681 843 844 845 853
3684 681 843 848 847 855
3685 681 844 843 842 851
3686 681 844 843 848 856
3687 681 844 845 846 854
3688 681 845 846 847 855
3689 681 846 845 844 852
3690 681 846 847 848 856
3691 681 847 846 845 853
3692 681 848 843 842 851
3693 681 848 843 844 852
3694 681 848 847 846 854
3695 681 849 841 842 857
3696 681 850 841 842 857
3697 681 857 858 873 881
3698 681 857 858 873 882
3699 681 851 842 857 858
3700 681 858 859 860 868
3701 681 858 859 864 872
3702 681 858 873 874 883
3703 681 859 858 857 865
3704 681 859 858 857 866
3705 681 859 858 873 881
3706 681 859 858 873 882
3707 681 859 860 861 869
3708 681 859 864 863 871
3709 681 860 859 858 867
3710 681 860 859 864 872
3711 681 860 861 862 870
3712 681 861 862 863 871
3713 681 862 861 860 868
3714 681 862 863 864 872
3715 681 863 862 861 869
3716 681 864 859 858 867
3717 681 864 859 860 868
3718 681 864 863 862 870
3719 681 865 857 858 873
3720 681 866 857 858 873
3721 681 873 874 889 897
3722 681 873 874 889 898
3723 681 867 858 873 874
3724 681 874 875 876 884
3725 681 874 875 880 888
3726 681 874 889 890 899
3727 681 875 874 873 881
3728 681 875 874 873 882
3729 681 875 874 889 897
3730 681 875 874 889 898
3731 681 875 876 877 885
3732 681 875 880 879 887
3733 681 876 875 874 883
3734 681 876 875 880 888
3735 681 876 877 878 886
3736 681 877 878 879 887
3737 681 878 877 876 884
3738 681 878 879 880 888
3739 681 879 878 877 885
3740 681 880 875 874 883
3741 681 880 875 876 884
3742 681 880 879 878 886
3743 681 881 873 874 889
3744 681 882 873 874 889
3745 681 889 890 905 913
3746 681 889 890 905 914
3747 681 883 874 889 890
3748 681 890 891 892 900
3749 681 890 891 896 904
3750 681 890 905 906 915
3751 681 891 890 889 897
3752 681 891 890 889 898
3753 681 891 890 905 913
3754 681 891 890 905 914
3755 681 891 892 893 901
3756 681 891 896 895 903
3757 681 892 891 890 899
3758 681 892 891 896 904
3759 681 892 893 894 902
3760 681 893 894 895 903
3761 681 894 893 892 900
3762 681 894 895 896 904
3763 681 895 894 893 901
3764 681 896 891 890 899
3765 681 896 891 892 900
3766 681 896 895 894 902
3767 681 897 889 890 905
3768 681 898 889 890 905
3769 681 905 906 921 929
3770 681 905 906 921 930
3771 681 899 890 905 906
3772 681 906 907 908 916
3773 681 906 907 912 920
3774 681 906 921 922 931
3775 681 907 906 905 913
3776 681 907 906 905 914
3777 681 907 906 921 929
3778 681 907 906 921 930
3779 681 907 908 909 917
3780 681 907 912 911 919
3781 681 908 907 906 915
3782 681 908 907 912 920
3783 681 908 909 910 918
3784 681 909 910 911 919
3785 681 910 909 908 916
3786 681 910 911 912 920
3787 681 911 910 909 917
3788 681 912 907 906 915
3789 681 912 907 908 916
3790 681 912 911 910 918
3791 681 913 905 906 921
3792 681 914 905 906 921
3793 681 921 922 937 945
3794 681 921 922 937 946
3795 681 915 906 921 922
3796 681 922 923 924 932
3797 681 922 923 928 936
3798 681 922 937 938 947
3799 681 923 922 921 929
3800 681 923 922 921 930
3801 681 923 922 937 945
3802 681 923 922 937 946
3803 681 923 924 925 933
3804 681 923 928 927 935
3805 681 924 923 922 931
3806 681 924 923 928 936
3807 681 924 925 926 934
3808 681 925 926 927 935
3809 681 926 925 924 932
3810 681 926 927 928 936
3811 681 927 926 925 933
3812 681 928 923 922 931
3813 681 928 923 924 932
3814 681 928 927 926 934
3815 681 929 921 922 937
3816 681 930 921 922 937
3817 681 937 938 953 961
3818 681 937 938 953 962
3819 681 931 922 937 938
3820 681 938 939 940 948
3821 681 938 939 944 952
3822 681 938 953 954 963
3823 681 939 938 937 945
3824 681 939 938 937 946
3825 681 939 938 953 961
3826 681 939 938 953 962
3827 681 939 940 941 949
3828 681 939 944 943 951
3829 681 940 939 938 947
3830 681 940 939 944 952
3831 681 940 941 942 950
3832 681 941 942 943 951
3833 681 942 941 940 948
3834 681 942 943 944 952
3835 681 943 942 941 949
3836 681 944 939 938 947
3837 681 944 939 940 948
3838 681 944 943 942 950
3839 681 945 937 938 953
3840 681 946 937 938 953
3841 681 953 954 969 977
3842 681 953 954 969 978
3843 681 947 938 953 954
3844 681 954 955 956 964
3845 681 954 955 960 968
3846 681 954 969 970 979
3847 681 955 954 953 961
3848 681 955 954 953 962
3849 681 955 954 969 977
3850 681 955 954 969 978
3851 681 955 956 957 965
3852 681 955 960 959 967
3853 681 956 955 954 963
3854 681 956 955 960 968
3855 681 956 957 958 966
3856 681 957 958 959 967
3857 681 958 957 956 964
3858 681 958 959 960 968
3859 681 959 958 957 965
3860 681 960 955 954 963
3861 681 960 955 956 964
3862 681 960 959 958 966
3863 681 961 953 954 969
3864 681 962 953 954 969
3865 681 969 970 985 993
3866 681 969 970 985 994
3867 681 963 954 969 970
3868 681 970 971 972 980
3869 681 970 971 976 984
3870 681 970 985 986 995
3871 681 971 970 969 977
3872 681 971 970 969 978
3873 681 971 970 985 993
3874 681 971 970 985 994
3875 681 971 972 973 981
3876 681 971 976 975 983
3877 681 972 971 970 979
3878 681 972 971 976 984
3879 681 972 973 974 982
3880 681 973 974 975 983
3881 681 974 973 972 980
3882 681 974 975 976 984
3883 681 975 974 973 981
3884 681 976 971 970 979
3885 681 976 971 972 980
3886 681 976 975 974 982
3887 681 977 969 970 985
3888 681 978 969 970 985
3889 681 985 986 1001 1002
3890 681 985 986 1001 1003
3891 681 985 986 1001 1004
3892 681 979 970 985 986
3893 681 986 987 988 996
3894 681 986 987 992 1000
3895 681 987 986 985 993
3896 681 987 986 985 994
3897 681 987 986 1001 1002
3898 681 987 986 1001 1003
3899 681 987 986 1001 1004
3900 681 987 988 989 997
3901 681 987 992 991 999
3902 681 988 987 986 995
3903 681 988 987 992 1000
3904 681 988 989 990 998
3905 681 989 990 991 999
3906 681 990 989 988 996
3907 681 990 991 992 1000
3908 681 991 990 989 997
3909 681 992 987 986 995
3910 681 992 987 988 996
3911 681 992 991 990 998
3912 681 993 985 986 1001
3913 681 994 985 986 1001
3914 681 851 842 841 1005
3915 681 1009 1010 1025 1033
3916 681 1009 1010 1025 1034
3917 681 1010 1009 1173 1174
3918 681 1010 1009 1173 1175
3919 681 1010 1009 1173 1176
3920 681 1010 1011 1012 1020
3921 681 1010 1011 1016 1024
3922 681 1010 1025 1026 1035
3923 681 1011 1010 1009 1017
3924 681 1011 1010 1009 1018
3925 681 1011 1010 1025 1033
3926 681 1011 1010 1025 1034
3927 681 1011 1012 1013 1021
3928 681 1011 1016 1015 1023
3929 681 1012 1011 1010 1019
3930 681 1012 1011 1016 1024
3931 681 1012 1013 1014 1022
3932 681 1013 1014 1015 1023
3933 681 1014 1013 1012 1020
3934 681 1014 1015 1016 1024
3935 681 1015 1014 1013 1021
3936 681 1016 1011 1010 1019
3937 681 1016 1011 1012 1020
3938 681 1016 1015 1014 1022
3939 681 1017 1009 1010 1025
3940 681 1018 1009 1010 1025
3941 681 1025 1026 1041 1049
3942 681 1025 1026 1041 1050
3943 681 1019 1010 1025 1026
3944 681 1026 1027 1028 1036
3945 681 1026 1027 1032 1040
3946 681 1026 1041 1042 1051
3947 681 1027 1026 1025 1033
3948 681 1027 1026 1025 1034
3949 681 1027 1026 1041 1049
3950 681 1027 1026 1041 1050
3951 681 1027 1028 1029 1037
3952 681 1027 1032 1031 1039
3953 681 1028 1027 1026 1035
3954 681 1028 1027 1032 1040
3955 681 1028 1029 1030 1038
3956 681 1029 1030 1031 1039
3957 681 1030 1029 1028 1036
3958 681 1030 1031 1032 1040
3959 681 1031 1030 1029 1037
3960 681 1032 1027 1026 1035
3961 681 1032 1027 1028 1036
3962 681 1032 1031 1030 1038
3963 681 1033 1025 1026 1041
3964 681 1034 1025 1026 1041
3965 681 1041 1042 1057 1065
3966 681 1041 1042 1057 1066
3967 681 1035 1026 1041 1042
3968 681 1042 1043 1044 1052
3969 681 1042 1043 1048 1056
3970 681 1042 1057 1058 1067
3971 681 1043 1042 1041 1049
3972 681 1043 1042 1041 1050
3973 681 1043 1042 1057 1065
3974 681 1043 1042 1057 1066
3975 681 1043 1044 1045 1053
3976 681 1043 1048 1047 1055
3977 681 1044 1043 1042 1051
3978 681 1044 1043 1048 1056
3979 681 1044 1045 1046 1054
3980 681 1045 1046 1047 1055
3981 681 1046 1045 1044 1052
3982 681 1046 1047 1048 1056
3983 681 1047 1046 1045 1053
3984 681 1048 1043 1042 1051
3985 681 1048 1043 1044 1052
3986 681 1048 1047 1046 1054
3987 681 1049 1041 1042 1057
3988 681 1050 1041 1042 1057
3989 681 1057 1058 1073 1081
3990 681 1057 1058 1073 1082
3991 681 1051 1042 1057 1058
3992 681 1058 1059 1060 1068
3993 681 1058 1059 1064 1072
3994 681 1058 1073 1074 1083
3995 681 1059 1058 1057 1065
3996 681 1059 1058 1057 1066
3997 681 1059 1058 1073 1081
3998 681 1059 1058 1073 1082
3999 681 1059 1060 1061 1069
4000 681 1059 1064 1063 1071
4001 681 1060 1059 1058 1067
4002 681 1060 1059 1064 1072
4003 681 1060 1061 1062 1070
4004 681 1061 1062 1063 1071
4005 681 1062 1061 1060 1068
4006 681 1062 1063 1064 1072
4007 681 1063 1062 1061 1069
4008 681 1064 1059 1058 1067
4009 681 1064 1059 1060 1068
4010 681 1064 1063 1062 1070
4011 681 1065 1057 1058 1073
4012 681 1066 1057 1058 1073
4013 681 1073 1074 1089 1097
4014 681 1073 1074 1089 1098
4015 681 1067 1058 1073 1074
4016 681 1074 1075 1076 1084
4017 681 1074 1075 1080 1088
4018 681 1074 1089 1090 1099
4019 681 1075 1074 1073 1081
4020 681 1075 1074 1073 1082
4021 681 1075 1074 1089 1097
4022 681 1075 1074 1089 1098
4023 681 1075 1076 1077 1085
4024 681 1075 1080 1079 1087
4025 681 1076 1075 1074 1083
4026 681 1076 1075 1080 1088
4027 681 1076 1077 1078 1086
4028 681 1077 1078 1079 1087
4029 681 1078 1077 1076 1084
4030 681 1078 1079 1080 1088
4031 681 1079 1078 1077 1085
4032 681 1080 1075 1074 1083
4033 681 1080 1075 1076 1084
4034 681 1080 1079 1078 1086
4035 681 1081 1073 1074 1089
4036 681 1082 1073 1074 1089
4037 681 1089 1090 1105 1113
4038 681 1089 1090 1105 1114
4039 681 1083 1074 1089 1090
4040 681 1090 1091 1092 1100
4041 681 1090 1091 1096 1104
4042 681 1090 1105 1106 1115
4043 681 1091 1090 1089 1097
4044 681 1091 1090 1089 1098
4045 681 1091 1090 1105 1113
4046 681 1091 1090 1105 1114
4047 681 1091 1092 1093 1101
4048 681 1091 1096 1095 1103
4049 681 1092 1091 1090 1099
4050 681 1092 1091 1096 1104
4051 681 1092 1093 1094 1102
4052 681 1093 1094 1095 1103
4053 681 1094 1093 1092 1100
4054 681 1094 1095 1096 1104
4055 681 1095 1094 1093 1101
4056 681 1096 1091 1090 1099
4057 681 1096 1091 1092 1100
4058 681 1096 1095 1094 1102
4059 681 1097 1089 1090 1105
4060 681 1098 1089 1090 1105
4061 681 1105 1106 1121 1129
4062 681 1105 1106 1121 1130
4063 681 1099 1090 1105 1106
4064 681 1106 1107 1108 1116
4065 681 1106 1107 1112 1120
4066 681 1106 1121 1122 1131
4067 681 1107 1106 1105 1113
4068 681 1107 1106 1105 1114
4069 681 1107 1106 1121 1129
4070 681 1107 1106 1121 1130
4071 681 1107 1108 1109 1117
4072 681 1107 1112 1111 1119
4073 681 1108 1107 1106 1115
4074 681 1108 1107 1112 1120
4075 681 1108 1109 1110 1118
4076 681 1109 1110 1111 1119
4077 681 1110 1109 1108 1116
4078 681 1110 1111 1112 1120
4079 681 1111 1110 1109 1117
4080 681 1112 1107 1106 1115
4081 681 1112 1107 1108 1116
4082 681 1112 1111 1110 1118
4083 681 1113 1105 1106 1121
4084 681 1114 1105 1106 1121
4085 681 1121 1122 1137 1145
4086 681 1121 1122 1137 1146
4087 681 1115 1106 1121 1122
4088 681 1122 1123 1124 1132
4089 681 1122 1123 1128 1136
4090 681 1122 1137 1138 1147
4091 681 1123 1122 1121 1129
4092 681 1123 1122 1121 1130
4093 681 1123 1122 1137 1145
4094 681 1123 1122 1137 1146
4095 681 1123 1124 1125 1133
4096 681 1123 1128 1127 1135
4097 681 1124 1123 1122 1131
4098 681 1124 1123 1128 1136
4099 681 1124 1125 1126 1134
4100 681 1125 1126 1127 1135
4101 681 1126 1125 1124 1132
4102 681 1126 1127 1128 1136
4103 681 1127 1126 1125 1133
4104 681 1128 1123 1122 1131
4105 681 1128 1123 1124 1132
4106 681 1128 1127 1126 1134
4107 681 1129 1121 1122 1137
4108 681 1130 1121 1122 1137
4109 681 1137 1138 1153 1161
4110 681 1137 1138 1153 1162
4111 681 1131 1122 1137 1138
4112 681 1138 1139 1140 1148
4113 681 1138 1139 1144 1152
4114 681 1138 1153 1154 1163
4115 681 1139 1138 1137 1145
4116 681 1139 1138 1137 1146
4117 681 1139 1138 1153 1161
4118 681 1139 1138 1153 1162
4119 681 1139 1140 1141 1149
4120 681 1139 1144 1143 1151
4121 681 1140 1139 1138 1147
4122 681 1140 1139 1144 1152
4123 681 1140 1141 1142 1150
4124 681 1141 1142 1143 1151
4125 681 1142 1141 1140 1148
4126 681 1142 1143 1144 1152
4127 681 1143 1142 1141 1149
4128 681 1144 1139 1138 1147
4129 681 1144 1139 1140 1148
4130 681 1144 1143 1142 1150
4131 681 1145 1137 1138 1153
4132 681 1146 1137 1138 1153
4133 681 1153 1154 1169 1170
4134 681 1153 1154 1169 1171
4135 681 1153 1154 1169 1172
4136 681 1147 1138 1153 1154
4137 681 1154 1155 1156 1164
4138 681 1154 1155 1160 1168
4139 681 1155 1154 1153 1161
4140 681 1155 1154 1153 1162
4141 681 1155 1154 1169 1170
4142 681 1155 1154 1169 1171
4143 681 1155 1154 1169 1172
4144 681 1155 1156 1157 1165
4145 681 1155 1160 1159 1167
4146 681 1156 1155 1154 1163
4147 681 1156 1155 1160 1168
4148 681 1156 1157 1158 1166
4149 681 1157 1158 1159 1167
4150 681 1158 1157 1156 1164
4151 681 1158 1159 1160 1168
4152 681 1159 1158 1157 1165
4153 681 1160 1155 1154 1163
4154 681 1160 1155 1156 1164
4155 681 1160 1159 1158 1166
4156 681 1161 1153 1154 1169
4157 681 1162 1153 1154 1169
4158 681 1019 1010 1009 1173
4159 681 1177 1178 1193 1201
4160 681 1177 1178 1193 1202
4161 681 1178 1177 1341 1342
4162 681 1178 1177 1341 1343
4163 681 1178 1177 1341 1344
4164 681 1178 1179 1180 1188
4165 681 1178 1179 1184 1192
4166 681 1178 1193 1194 1203
4167 681 1179 1178 1177 1185
4168 681 1179 1178 1177 1186
4169 681 1179 1178 1193 1201
4170 681 1179 1178 1193 1202
4171 681 1179 1180 1181 1189
4172 681 1179 1184 1183 1191
4173 681 1180 1179 1178 1187
4174 681 1180 1179 1184 1192
4175 681 1180 1181 1182 1190
4176 681 1181 1182 1183 1191
4177 681 1182 1181 1180 1188
4178 681 1182 1183 1184 1192
4179 681 1183 1182 1181 1189
4180 681 1184 1179 1178 1187
4181 681 1184 1179 1180 1188
4182 681 1184 1183 1182 1190
4183 681 1185 1177 1178 1193
4184 681 1186 1177 1178 1193
4185 681 1193 1194 1209 1217
4186 681 1193 1194 1209 1218
4187 681 1187 1178 1193 1194
4188 681 1194 1195 1196 1204
4189 681 1194 1195 1200 1208
4190 681 1194 1209 1210 1219
4191 681 1195 1194 1193 1201
4192 681 1195 1194 1193 1202
4193 681 1195 1194 1209 1217
4194 681 1195 1194 1209 1218
4195 681 1195 1196 1197 1205
4196 681 1195 1200 1199 1207
4197 681 1196 1195 1194 1203
4198 681 1196 1195 1200 1208
4199 681 1196 1197 1198 1206
4200 681 1197 1198 1199 1207
4201 681 1198 1197 1196 1204
4202 681 1198 1199 1200 1208
4203 681 1199 1198 1197 1205
4204 681 1200 1195 1194 1203
4205 681 1200 1195 1196 1204
4206 681 1200 1199 1198 1206
4207 681 1201 1193 1194 1209
4208 681 1202 1193 1194 1209
4209 681 1209 1210 1225 1233
4210 681 1209 1210 1225 1234
4211 681 1203 1194 1209 1210
4212 681 1210 1211 1212 1220
4213 681 1210 1211 1216 1224
4214 681 1210 1225 1226 1235
4215 681 1211 1210 1209 1217
4216 681 1211 1210 1209 1218
4217 681 1211 1210 1225 1233
4218 681 1211 1210 1225 1234
4219 681 1211 1212 1213 1221
4220 681 1211 1216 1215 1223
4221 681 1212 1211 1210 1219
4222 681 1212 1211 1216 1224
4223 681 1212 1213 1214 1222
4224 681 1213 1214 1215 1223
4225 681 1214 1213 1212 1220
4226 681 1214 1215 1216 1224
4227 681 1215 1214 1213 1221
4228 681 1216 1211 1210 1219
4229 681 1216 1211 1212 1220
4230 681 1216 1215 1214 1222
4231 681 1217 1209 1210 1225
4232 681 1218 1209 1210 1225
4233 681 1225 1226 1241 1249
4234 681 1225 1226 1241 1250
4235 681 1219 1210 1225 1226
4236 681 1226 1227 1228 1236
4237 681 1226 1227 1232 1240
4238 681 1226 1241 1242 1251
4239 681 1227 1226 1225 1233
4240 681 1227 1226 1225 1234
4241 681 1227 1226 1241 1249
4242 681 1227 1226 1241 1250
4243 681 1227 1228 1229 1237
4244 681 1227 1232 1231 1239
4245 681 1228 1227 1226 1235
4246 681 1228 1227 1232 1240
4247 681 1228 1229 1230 1238
4248 681 1229 1230 1231 1239
4249 681 1230 1229 1228 1236
4250 681 1230 1231 1232 1240
4251 681 1231 1230 1229 1237
4252 681 1232 1227 1226 1235
4253 681 1232 1227 1228 1236
4254 681 1232 1231 1230 1238
4255 681 1233 1225 1226 1241
4256 681 1234 1225 1226 1241
4257 681 1241 1242 1257 1265
4258 681 1241 1242 1257 1266
4259 681 1235 1226 1241 1242
4260 681 1242 1243 1244 1252
4261 681 1242 1243 1248 1256
4262 681 1242 1257 1258 1267
4263 681 1243 1242 1241 1249
4264 681 1243 1242 1241 1250
4265 681 1243 1242 1257 1265
4266 681 1243 1242 1257 1266
4267 681 1243 1244 1245 1253
4268 681 1243 1248 1247 1255
4269 681 1244 1243 1242 1251
4270 681 1244 1243 1248 1256
4271 681 1244 1245 1246 1254
4272 681 1245 1246 1247 1255
4273 681 1246 1245 1244 1252
4274 681 1246 1247 1248 1256
4275 681 1247 1246 1245 1253
4276 681 1248 1243 1242 1251
4277 681 1248 1243 1244 1252
4278 681 1248 1247 1246 1254
4279 681 1249 1241 1242 1257
4280 681 1250 1241 1242 1257
4281 681 1257 1258 1273 1281
4282 681 1257 1258 1273 1282
4283 681 1251 1242 1257 1258
4284 681 1258 1259 1260 1268
4285 681 1258 1259 1264 1272
4286 681 1258 1273 1274 1283
4287 681 1259 1258 1257 1265
4288 681 1259 1258 1257 1266
4289 681 1259 1258 1273 1281
4290 681 1259 1258 1273 1282
4291 681 1259 1260 1261 1269
4292 681 1259 1264 1263 1271
4293 681 1260 1259 1258 1267
4294 681 1260 1259 1264 1272
4295 681 1260 1261 1262 1270
4296 681 1261 1262 1263 1271
4297 681 1262 1261 1260 1268
4298 681 1262 1263 1264 1272
4299 681 1263 1262 1261 1269
4300 681 1264 1259 1258 1267
4301 681 1264 1259 1260 1268
4302 681 1264 1263 1262 1270
4303 681 1265 1257 1258 1273
4304 681 1266 1257 1258 1273
4305 681 1273 1274 1289 1297
4306 681 1273 1274 1289 1298
4307 681 1267 1258 1273 1274
4308 681 1274 1275 1276 1284
4309 681 1274 1275 1280 1288
4310 681 1274 1289 1290 1299
4311 681 1275 1274 1273 1281
4312 681 1275 1274 1273 1282
4313 681 1275 1274 1289 1297
4314 681 1275 1274 1289 1298
4315 681 1275 1276 1277 1285
4316 681 1275 1280 1279 1287
4317 681 1276 1275 1274 1283
4318 681 1276 1275 1280 1288
4319 681 1276 1277 1278 1286
4320 681 1277 1278 1279 1287
4321 681 1278 1277 1276 1284
4322 681 1278 1279 1280 1288
4323 681 1279 1278 1277 1285
4324 681 1280 1275 1274 1283
4325 681 1280 1275 1276 1284
4326 681 1280 1279 1278 1286
4327 681 1281 1273 1274 1289
4328 681 1282 1273 1274 1289
4329 681 1289 1290 1305 1313
4330 681 1289 1290 1305 1314
4331 681 1283 1274 1289 1290
4332 681 1290 1291 1292 1300
4333 681 1290 1291 1296 1304
4334 681 1290 1305 1306 1315
4335 681 1291 1290 1289 1297
4336 681 1291 1290 1289 1298
4337 681 1291 1290 1305 1313
4338 681 1291 1290 1305 1314
4339 681 1291 1292 1293 1301
4340 681 1291 1296 1295 1303
4341 681 1292 1291 1290 1299
4342 681 1292 1291 1296 1304
4343 681 1292 1293 1294 1302
4344 681 1293 1294 1295 1303
4345 681 1294 1293 1292 1300
4346 681 1294 1295 1296 1304
4347 681 1295 1294 1293 1301
4348 681 1296 1291 1290 1299
4349 681 1296 1291 1292 1300
4350 681 1296 1295 1294 1302
4351 681 1297 1289 1290 1305
4352 681 1298 1289 1290 1305
4353 681 1305 1306 1321 1329
4354 681 1305 1306 1321 1330
4355 681 1299 1290 1305 1306
4356 681 1306 1307 1308 1316
4357 681 1306 1307 1312 1320
4358 681 1306 1321 1322 1331
4359 681 1307 1306 1305 1313
4360 681 1307 1306 1305 1314
4361 681 1307 1306 1321 1329
4362 681 1307 1306 1321 1330
4363 681 1307 1308 1309 1317
4364 681 1307 1312 1311 1319
4365 681 1308 1307 1306 1315
4366 681 1308 1307 1312 1320
4367 681 1308 1309 1310 1318
4368 681 1309 1310 1311 1319
4369 681 1310 1309 1308 1316
4370 681 1310 1311 1312 1320
4371 681 1311 1310 1309 1317
4372 681 1312 1307 1306 1315
4373 681 1312 1307 1308 1316
4374 681 1312 1311 1310 1318
4375 681 1313 1305 1306 1321
4376 681 1314 1305 1306 1321
4377 681 1321 1322 1337 1338
4378 681 1321 1322 1337 1339
4379 681 1321 1322 1337 1340
4380 681 1315 1306 1321 1322
4381 681 1322 1323 1324 1332
4382 681 1322 1323 1328 1336
4383 681 1323 1322 1321 1329
4384 681 1323 1322 1321 1330
4385 681 1323 1322 1337 1338
4386 681 1323 1322 1337 1339
4387 681 1323 1322 1337 1340
4388 681 1323 1324 1325 1333
4389 681 1323 1328 1327 1335
4390 681 1324 1323 1322 1331
4391 681 1324 1323 1328 1336
4392 681 1324 1325 1326 1334
4393 681 1325 1326 1327 1335
4394 681 1326 1325 1324 1332
4395 681 1326 1327 1328 1336
4396 681 1327 1326 1325 1333
4397 681 1328 1323 1322 1331
4398 681 1328 1323 1324 1332
4399 681 1328 1327 1326 1334
4400 681 1329 1321 1322 1337
4401 681 1330 1321 1322 1337
4402 681 1187 1178 1177 1341
4403 681 1345 1346 1361 1369
4404 681 1345 1346 1361 1370
4405 681 1346 1345 1509 1510
4406 681 1346 1345 1509 1511
4407 681 1346 1345 1509 1512
4408 681 1346 1347 1348 1356
4409 681 1346 1347 1352 1360
4410 681 1346 1361 1362 1371
4411 681 1347 1346 1345 1353
4412 681 1347 1346 1345 1354
4413 681 1347 1346 1361 1369
4414 681 1347 1346 1361 1370
4415 681 1347 1348 1349 1357
4416 681 1347 1352 1351 1359
4417 681 1348 1347 1346 1355
4418 681 1348 1347 1352 1360
4419 681 1348 1349 1350 1358
4420 681 1349 1350 1351 1359
4421 681 1350 1349 1348 1356
4422 681 1350 1351 1352 1360
4423 681 1351 1350 1349 1357
4424 681 1352 1347 1346 1355
4425 681 1352 1347 1348 1356
4426 681 1352 1351 1350 1358
4427 681 1353 1345 1346 1361
4428 681 1354 1345 1346 1361
4429 681 1361 1362 1377 1385
4430 681 1361 1362 1377 1386
4431 681 1355 1346 1361 1362
4432 681 1362 1363 1364 1372
4433 681 1362 1363 1368 1376
4434 681 1362 1377 1378 1387
4435 681 1363 1362 1361 1369
4436 681 1363 1362 1361 1370
4437 681 1363 1362 1377 1385
4438 681 1363 1362 1377 1386
4439 681 1363 1364 1365 1373
4440 681 1363 1368 1367 1375
4441 681 1364 1363 1362 1371
4442 681 1364 1363 1368 1376
4443 681 1364 1365 1366 1374
4444 681 1365 1366 1367 1375
4445 681 1366 1365 1364 1372
4446 681 1366 1367 1368 1376
4447 681 1367 1366 1365 1373
4448 681 1368 1363 1362 1371
4449 681 1368 1363 1364 1372
4450 681 1368 1367 1366 1374
4451 681 1369 1361 1362 1377
4452 681 1370 1361 1362 1377
4453 681 1377 1378 1393 1401
4454 681 1377 1378 1393 1402
4455 681 1371 1362 1377 1378
4456 681 1378 1379 1380 1388
4457 681 1378 1379 1384 1392
4458 681 1378 1393 1394 1403
4459 681 1379 1378 1377 1385
4460 681 1379 1378 1377 1386
4461 681 1379 1378 1393 1401
4462 681 1379 1378 1393 1402
4463 681 1379 1380 1381 1389
4464 681 1379 1384 1383 1391
4465 681 1380 1379 1378 1387
4466 681 1380 1379 1384 1392
4467 681 1380 1381 1382 1390
4468 681 1381 1382 1383 1391
4469 681 1382 1381 1380 1388
4470 681 1382 1383 1384 1392
4471 681 1383 1382 1381 1389
4472 681 1384 1379 1378 1387
4473 681 1384 1379 1380 1388
4474 681 1384 1383 1382 1390
4475 681 1385 1377 1378 1393
4476 681 1386 1377 1378 1393
4477 681 1393 1394 1409 1417
4478 681 1393 1394 1409 1418
4479 681 1387 1378 1393 1394
4480 681 1394 1395 1396 1404
4481 681 1394 1395 1400 1408
4482 681 1394 1409 1410 1419
4483 681 1395 1394 1393 1401
4484 681 1395 1394 1393 1402
4485 681 1395 1394 1409 1417
4486 681 1395 1394 1409 1418
4487 681 1395 1396 1397 1405
4488 681 1395 1400 1399 1407
4489 681 1396 1395 1394 1403
4490 681 1396 1395 1400 1408
4491 681 1396 1397 1398 1406
4492 681 1397 1398 1399 1407
4493 681 1398 1397 1396 1404
4494 681 1398 1399 1400 1408
4495 681 1399 1398 1397 1405
4496 681 1400 1395 1394 1403
4497 681 1400 1395 1396 1404
4498 681 1400 1399 1398 1406
4499 681 1401 1393 1394 1409
4500 681 1402 1393 1394 1409
4501 681 1409 1410 1425 1433
4502 681 1409 1410 1425 1434
4503 681 1403 1394 1409 1410
4504 681 1410 1411 1412 1420
4505 681 1410 1411 1416 1424
4506 681 1410 1425 1426 1435
4507 681 1411 1410 1409 1417
4508 681 1411 1410 1409 1418
4509 681 1411 1410 1425 1433
4510 681 1411 1410 1425 1434
4511 681 1411 1412 1413 1421
4512 681 1411 1416 1415 1423
4513 681 1412 1411 1410 1419
4514 681 1412 1411 1416 1424
4515 681 1412 1413 1414 1422
4516 681 1413 1414 1415 1423
4517 681 1414 1413 1412 1420
4518 681 1414 1415 1416 1424
4519 681 1415 1414 1413 1421
4520 681 1416 1411 1410 1419
4521 681 1416 1411 1412 1420
4522 681 1416 1415 1414 1422
4523 681 1417 1409 1410 1425
4524 681 1418 1409 1410 1425
4525 681 1425 1426 1441 1449
4526 681 1425 1426 1441 1450
4527 681 1419 1410 1425 1426
4528 681 1426 1427 1428 1436
4529 681 1426 1427 1432 1440
4530 681 1426 1441 1442 1451
4531 681 1427 1426 1425 1433
4532 681 1427 1426 1425 1434
4533 681 1427 1426 1441 1449
4534 681 1427 1426 1441 1450
4535 681 1427 1428 1429 1437
4536 681 1427 1432 1431 1439
4537 681 1428 1427 1426 1435
4538 681 1428 1427 1432 1440
4539 681 1428 1429 1430 1438
4540 681 1429 1430 1431 1439
4541 681 1430 1429 1428 1436
4542 681 1430 1431 1432 1440
4543 681 1431 1430 1429 1437
4544 681 1432 1427 1426 1435
4545 681 1432 1427 1428 1436
4546 681 1432 1431 1430 1438
4547 681 1433 1425 1426 1441
4548 681 1434 1425 1426 1441
4549 681 1441 1442 1457 1465
4550 681 1441 1442 1457 1466
4551 681 1435 1426 1441 1442
4552 681 1442 1443 1444 1452
4553 681 1442 1443 1448 1456
4554 681 1442 1457 1458 1467
4555 681 1443 1442 1441 1449
4556 681 1443 1442 1441 1450
4557 681 1443 1442 1457 1465
4558 681 1443 1442 1457 1466
4559 681 1443 1444 1445 1453
4560 681 1443 1448 1447 1455
4561 681 1444 1443 1442 1451
4562 681 1444 1443 1448 1456
4563 681 1444 1445 1446 1454
4564 681 1445 1446 1447 1455
4565 681 1446 1445 1444 1452
4566 681 1446 1447 1448 1456
4567 681 1447 1446 1445 1453
4568 681 1448 1443 1442 1451
4569 681 1448 1443 1444 1452
4570 681 1448 1447 1446 1454
4571 681 1449 1441 1442 1457
4572 681 1450 1441 1442 1457
4573 681 1457 1458 1473 1481
4574 681 1457 1458 1473 1482
4575 681 1451 1442 1457 1458
4576 681 1458 1459 1460 1468
4577 681 1458 1459 1464 1472
4578 681 1458 1473 1474 1483
4579 681 1459 1458 1457 1465
4580 681 1459 1458 1457 1466
4581 681 1459 1458 1473 1481
4582 681 1459 1458 1473 1482
4583 681 1459 1460 1461 1469
4584 681 1459 1464 1463 1471
4585 681 1460 1459 1458 1467
4586 681 1460 1459 1464 1472
4587 681 1460 1461 1462 1470
4588 681 1461 1462 1463 1471
4589 681 1462 1461 1460 1468
4590 681 1462 1463 1464 1472
4591 681 1463 1462 1461 1469
4592 681 1464 1459 1458 1467
4593 681 1464 1459 1460 1468
4594 681 1464 1463 1462 1470
4595 681 1465 1457 1458 1473
4596 681 1466 1457 1458 1473
4597 681 1473 1474 1489 1497
4598 681 1473 1474 1489 1498
4599 681 1467 1458 1473 1474
4600 681 1474 1475 1476 1484
4601 681 1474 1475 1480 1488
4602 681 1474 1489 1490 1499
4603 681 1475 1474 1473 1481
4604 681 1475 1474 1473 1482
4605 681 1475 1474 1489 1497
4606 681 1475 1474 1489 1498
4607 681 1475 1476 1477 1485
4608 681 1475 1480 1479 1487
4609 681 1476 1475 1474 1483
4610 681 1476 1475 1480 1488
4611 681 1476 1477 1478 1486
4612 681 1477 1478 1479 1487
4613 681 1478 1477 1476 1484
4614 681 1478 1479 1480 1488
4615 681 1479 1478 1477 1485
4616 681 1480 1475 1474 1483
4617 681 1480 1475 1476 1484
4618 681 1480 1479 1478 1486
4619 681 1481 1473 1474 1489
4620 681 1482 1473 1474 1489
4621 681 1489 1490 1505 1506
4622 681 1489 1490 1505 1507
4623 681 1489 1490 1505 1508
4624 681 1483 1474 1489 1490
4625 681 1490 1491 1492 1500
4626 681 1490 1491 1496 1504
4627 681 1491 1490 1489 1497
4628 681 1491 1490 1489 1498
4629 681 1491 1490 1505 1506
4630 681 1491 1490 1505 1507
4631 681 1491 1490 1505 1508
4632 681 1491 1492 1493 1501
4633 681 1491 1496 1495 1503
4634 681 1492 1491 1490 1499
4635 681 1492 1491 1496 1504
4636 681 1492 1493 1494 1502
4637 681 1493 1494 1495 1503
4638 681 1494 1493 1492 1500
4639 681 1494 1495 1496 1504
4640 681 1495 1494 1493 1501
4641 681 1496 1491 1490 1499
4642 681 1496 1491 1492 1500
4643 681 1496 1495 1494 1502
4644 681 1497 1489 1490 1505
4645 681 1498 1489 1490 1505
4646 681 1355 1346 1345 1509
4647 681 1513 1514 1529 1537
4648 681 1513 1514 1529 1538
4649 681 1514 1513 1677 1678
4650 681 1514 1513 1677 1679
4651 681 1514 1513 1677 1680
4652 681 1514 1515 1516 1524
4653 681 1514 1515 1520 1528
4654 681 1514 1529 1530 1539
4655 681 1515 1514 1513 1521
4656 681 1515 1514 1513 1522
4657 681 1515 1514 1529 1537
4658 681 1515 1514 1529 1538
4659 681 1515 1516 1517 1525
4660 681 1515 1520 1519 1527
4661 681 1516 1515 1514 1523
4662 681 1516 1515 1520 1528
4663 681 1516 1517 1518 1526
4664 681 1517 1518 1519 1527
4665 681 1518 1517 1516 1524
4666 681 1518 1519 1520 1528
4667 681 1519 1518 1517 1525
4668 681 1520 1515 1514 1523
4669 681 1520 1515 1516 1524
4670 681 1520 1519 1518 1526
4671 681 1521 1513 1514 1529
4672 681 1522 1513 1514 1529
4673 681 1529 1530 1545 1553
4674 681 1529 1530 1545 1554
4675 681 1523 1514 1529 1530
4676 681 1530 1531 1532 1540
4677 681 1530 1531 1536 1544
4678 681 1530 1545 1546 1555
4679 681 1531 1530 1529 1537
4680 681 1531 1530 1529 1538
4681 681 1531 1530 1545 1553
4682 681 1531 1530 1545 1554
4683 681 1531 1532 1533 1541
4684 681 1531 1536 1535 1543
4685 681 1532 1531 1530 1539
4686 681 1532 1531 1536 1544
4687 681 1532 1533 1534 1542
4688 681 1533 1534 1535 1543
4689 681 1534 1533 1532 1540
4690 681 1534 1535 1536 1544
4691 681 1535 1534 1533 1541
4692 681 1536 1531 1530 1539
4693 681 1536 1531 1532 1540
4694 681 1536 1535 1534 1542
4695 681 1537 1529 1530 1545
4696 681 1538 1529 1530 1545
4697 681 1545 1546 1561 1569
4698 681 1545 1546 1561 1570
4699 681 1539 1530 1545 1546
4700 681 1546 1547 1548 1556
4701 681 1546 1547 1552 1560
4702 681 1546 1561 1562 1571
4703 681 1547 1546 1545 1553
4704 681 1547 1546 1545 1554
4705 681 1547 1546 1561 1569
4706 681 1547 1546 1561 1570
4707 681 1547 1548 1549 1557
4708 681 1547 1552 1551 1559
4709 681 1548 1547 1546 1555
4710 681 1548 1547 1552 1560
4711 681 1548 1549 1550 1558
4712 681 1549 1550 1551 1559
4713 681 1550 1549 1548 1556
4714 681 1550 1551 1552 1560
4715 681 1551 1550 1549 1557
4716 681 1552 1547 1546 1555
4717 681 1552 1547 1548 1556
4718 681 1552 1551 1550 1558
4719 681 1553 1545 1546 1561
4720 681 1554 1545 1546 1561
4721 681 1561 1562 1577 1585
4722 681 1561 1562 1577 1586
4723 681 1555 1546 1561 1562
4724 681 1562 1563 1564 1572
4725 681 1562 1563 1568 1576
4726 681 1562 1577 1578 1587
4727 681 1563 1562 1561 1569
4728 681 1563 1562 1561 1570
4729 681 1563 1562 1577 1585
4730 681 1563 1562 1577 1586
4731 681 1563 1564 1565 1573
4732 681 1563 1568 1567 1575
4733 681 1564 1563 1562 1571
4734 681 1564 1563 1568 1576
4735 681 1564 1565 1566 1574
4736 681 1565 1566 1567 1575
4737 681 1566 1565 1564 1572
4738 681 1566 1567 1568 1576
4739 681 1567 1566 1565 1573
4740 681 1568 1563 1562 1571
4741 681 1568 1563 1564 1572
4742 681 1568 1567 1566 1574
4743 681 1569 1561 1562 1577
4744 681 1570 1561 1562 1577
4745 681 1577 1578 1593 1601
4746 681 1577 1578 1593 1602
4747 681 1571 1562 1577 1578
4748 681 1578 1579 1580 1588
4749 681 1578 1579 1584 1592
4750 681 1578 1593 1594 1603
4751 681 1579 1578 1577 1585
4752 681 1579 1578 1577 1586
4753 681 1579 1578 1593 1601
4754 681 1579 1578 1593 1602
4755 681 1579 1580 1581 1589
4756 681 1579 1584 1583 1591
4757 681 1580 1579 1578 1587
4758 681 1580 1579 1584 1592
4759 681 1580 1581 1582 1590
4760 681 1581 1582 1583 1591
4761 681 1582 1581 1580 1588
4762 681 1582 1583 1584 1592
4763 681 1583 1582 1581 1589
4764 681 1584 1579 1578 1587
4765 681 1584 1579 1580 1588
4766 681 1584 1583 1582 1590
4767 681 1585 1577 1578 1593
4768 681 1586 1577 1578 1593
4769 681 1593 1594 1609 1617
4770 681 1593 1594 1609 1618
4771 681 1587 1578 1593 1594
4772 681 1594 1595 1596 1604
4773 681 1594 1595 1600 1608
4774 681 1594 1609 1610 1619
4775 681 1595 1594 1593 1601
4776 681 1595 1594 1593 1602
4777 681 1595 1594 1609 1617
4778 681 1595 1594 1609 1618
4779 681 1595 1596 1597 1605
4780 681 1595 1600 1599 1607
4781 681 1596 1595 1594 1603
4782 681 1596 1595 1600 1608
4783 681 1596 1597 1598 1606
4784 681 1597 1598 1599 1607
4785 681 1598 1597 1596 1604
4786 681 1598 1599 1600 1608
4787 681 1599 1598 1597 1605
4788 681 1600 1595 1594 1603
4789 681 1600 1595 1596 1604
4790 681 1600 1599 1598 1606
4791 681 1601 1593 1594 1609
4792 681 1602 1593 1594 1609
4793 681 1609 1610 1625 1633
4794 681 1609 1610 1625 1634
4795 681 1603 1594 1609 1610
4796 681 1610 1611 1612 1620
4797 681 1610 1611 1616 1624
4798 681 1610 1625 1626 1635
4799 681 1611 1610 1609 1617
4800 681 1611 1610 1609 1618
4801 681 1611 1610 1625 1633
4802 681 1611 1610 1625 1634
4803 681 1611 1612 1613 1621
4804 681 1611 1616 1615 1623
4805 681 1612 1611 1610 1619
4806 681 1612 1611 1616 1624
4807 681 1612 1613 1614 1622
4808 681 1613 1614 1615 1623
4809 681 1614 1613 1612 1620
4810 681 1614 1615 1616 1624
4811 681 1615 1614 1613 1621
4812 681 1616 1611 1610 1619
4813 681 1616 1611 1612 1620
4814 681 1616 1615 1614 1622
4815 681 1617 1609 1610 1625
4816 681 1618 1609 1610 1625
4817 681 1625 1626 1641 1649
4818 681 1625 1626 1641 1650
4819 681 1619 1610 1625 1626
4820 681 1626 1627 1628 1636
4821 681 1626 1627 1632 1640
4822 681 1626 1641 1642 1651
4823 681 1627 1626 1625 1633
4824 681 1627 1626 1625 1634
4825 681 1627 1626 1641 1649
4826 681 1627 1626 1641 1650
4827 681 1627 1628 1629 1637
4828 681 1627 1632 1631 1639
4829 681 1628 1627 1626 1635
4830 681 1628 1627 1632 1640
4831 681 1628 1629 1630 1638
4832 681 1629 1630 1631 1639
4833 681 1630 1629 1628 1636
4834 681 1630 1631 1632 1640
4835 681 1631 1630 1629 1637
4836 681 1632 1627 1626 1635
4837 681 1632 1627 1628 1636
4838 681 1632 1631 1630 1638
4839 681 1633 1625 1626 1641
4840 681 1634 1625 1626 1641
4841 681 1641 1642 1657 1665
4842 681 1641 1642 1657 1666
4843 681 1635 1626 1641 1642
4844 681 1642 1643 1644 1652
4845 681 1642 1643 1648 1656
4846 681 1642 1657 1658 1667
4847 681 1643 1642 1641 1649
4848 681 1643 1642 1641 1650
4849 681 1643 1642 1657 1665
4850 681 1643 1642 1657 1666
4851 681 1643 1644 1645 1653
4852 681 1643 1648 1647 1655
4853 681 1644 1643 1642 1651
4854 681 1644 1643 1648 1656
4855 681 1644 1645 1646 1654
4856 681 1645 1646 1647 1655
4857 681 1646 1645 1644 1652
4858 681 1646 1647 1648 1656
4859 681 1647 1646 1645 1653
4860 681 1648 1643 1642 1651
4861 681 1648 1643 1644 1652
4862 681 1648 1647 1646 1654
4863 681 1649 1641 1642 1657
4864 681 1650 1641 1642 1657
4865 681 1657 1658 1673 1674
4866 681 1657 1658 1673 1675
4867 681 1657 1658 1673 1676
4868 681 1651 1642 1657 1658
4869 681 1658 1659 1660 1668
4870 681 1658 1659 1664 1672
4871 681 1659 1658 1657 1665
4872 681 1659 1658 1657 1666
4873 681 1659 1658 1673 1674
4874 681 1659 1658 1673 1675
4875 681 1659 1658 1673 1676
4876 681 1659 1660 1661 1669
4877 681 1659 1664 1663 1671
4878 681 1660 1659 1658 1667
4879 681 1660 1659 1664 1672
4880 681 1660 1661 1662 1670
4881 681 1661 1662 1663 1671
4882 681 1662 1661 1660 1668
4883 681 1662 1663 1664 1672
4884 681 1663 1662 1661 1669
4885 681 1664 1659 1658 1667
4886 681 1664 1659 1660 1668
4887 681 1664 1663 1662 1670
4888 681 1665 1657 1658 1673
4889 681 1666 1657 1658 1673
4890 681 1523 1514 1513 1677

