ITEM: TIMESTEP
2020000
ITEM: NUMBER OF ATOMS
336
ITEM: BOX BOUNDS pp pp pp
-8.2232330000000005e+00 8.2232330000000005e+00
-8.2232330000000005e+00 8.2232330000000005e+00
-8.2232330000000005e+00 8.2232330000000005e+00
ITEM: ATOMS id x y z xu yu zu vx vy vz fx fy fz
1 5.72009 6.99115 6.15396 1929.96 -2657.34 -6062.59 0.000946297 0.00381029 -0.0152754 23.2607 -7.61243 0.341648
2 5.49992 5.99529 5.74999 1929.74 -2658.33 -6063 -0.0359099 0.00713556 -0.0031333 -10.2536 4.99978 1.8742
3 6.74769 6.89545 6.52582 1930.98 -2657.43 -6062.22 -0.00718334 -0.00830777 0.00410764 2.16462 -3.84692 -5.20837
4 5.85515 7.73807 5.36195 1930.09 -2656.59 -6063.38 0.018878 0.0208527 0.00379195 -15.3383 1.41512 2.02502
5 4.9456 7.40792 7.42469 1929.18 -2656.92 -6061.32 0.00677268 -0.0015457 -0.00519647 -13.3687 -12.6796 -1.43914
6 4.86164 -7.48999 7.55154 1929.1 -2655.37 -6061.19 0.00370622 -0.000459738 -0.00256485 -5.04432 1.66043 -52.0103
7 3.75321 -6.86108 6.55605 1927.99 -2654.74 -6062.19 -0.00442016 -0.00251153 0.00414587 9.45607 -24.5735 15.5412
8 4.13966 -6.09185 5.4518 1928.38 -2653.97 -6063.29 0.00296209 -0.00369962 -0.0223041 38.2248 -10.2451 31.4495
9 3.22619 -5.37851 4.73298 1927.46 -2653.26 -6064.01 0.000787059 0.0038001 -0.00681348 -44.2284 8.58354 -17.9678
10 1.85493 -5.5122 5.04785 1926.09 -2653.39 -6063.7 0.00431985 0.00834434 -0.000412116 6.5785 -0.914455 -19.9919
11 1.43087 -6.45762 6.0063 1925.67 -2654.34 -6062.74 0.00618476 -0.0154021 -0.0045497 -19.1074 5.07421 -14.8026
12 2.37049 -7.16456 6.70033 1926.61 -2655.05 -6062.05 0.00307875 -0.00683973 -0.0148386 48.8942 -17.5679 27.7634
13 5.46578 6.84047 8.20623 1929.7 -2657.49 -6060.54 0.0303289 0.0268071 -0.000487354 1.53162 21.7615 10.3596
14 3.9355 7.00323 7.56372 1928.17 -2657.32 -6061.18 -0.00307663 0.0190618 -0.0169748 -0.597476 -4.65233 -18.4602
15 5.87325 -7.18185 7.2598 1930.11 -2655.06 -6061.49 0.0155764 -0.0155105 0.0226682 -4.45985 12.9438 3.54132
16 5.21089 -6.03718 5.28192 1929.45 -2653.92 -6063.46 0.00188682 -0.0213896 -0.0347933 -0.668679 10.0377 -11.4295
17 3.45358 -4.80074 3.84199 1927.69 -2652.68 -6064.9 0.0365147 -0.0190624 -0.0123787 14.0746 -0.317184 7.35327
18 1.17566 -5.03743 4.346 1925.41 -2652.92 -6064.4 -0.0257855 -0.0403868 -0.00414329 -6.99329 -3.37959 14.7508
19 0.389331 -6.73332 6.14259 1924.63 -2654.61 -6062.6 -0.00170747 0.0169759 0.000318188 -1.24157 7.45352 -4.35541
20 2.13505 -7.98258 7.37473 1926.37 -2655.86 -6061.37 -0.0156829 0.034567 0.0286216 -13.4169 11.8261 -1.8606
21 4.60612 -7.08268 -7.48714 1928.84 -2654.96 -6059.79 0.000309143 -0.00643636 -0.00880417 -39.2856 -5.47441 24.0436
22 4.4424 -5.57471 -7.18226 1928.68 -2653.46 -6059.48 0.0043301 0.00760229 -0.000589252 48.6447 15.3189 8.24752
23 5.65587 -5.10815 -6.36852 1929.89 -2652.99 -6058.67 0.00745284 -0.00650069 -0.00659573 57.1504 52.6315 -25.4483
24 5.88069 -5.42381 -5.02933 1930.12 -2653.3 -6057.33 0.00221507 -0.00530551 -0.007587 -53.2359 -47.3036 -11.1989
25 6.9317 -5.03364 -4.26383 1931.17 -2652.91 -6056.56 0.00285252 -1.08241e-05 -0.00485991 2.78185 -3.67659 28.2867
26 7.8679 -4.14856 -4.72755 1932.1 -2652.03 -6057.03 0.00134459 -0.00737981 -0.00214161 -1.2392 -9.25025 -35.6099
27 7.76771 -3.82412 -6.12139 1932 -2651.71 -6058.42 -0.00783068 0.000335082 -0.0163171 16.7902 13.4682 32.3181
28 6.66579 -4.21596 -6.92325 1930.9 -2652.1 -6059.22 0.00225438 -0.00871575 -0.010209 1.12751 -17.4935 12.0204
29 3.57938 -7.43955 -7.33932 1927.82 -2655.32 -6059.64 0.00275062 -0.0134864 -0.0090174 3.20629 -13.8083 13.8004
30 5.28731 -7.63082 -6.82462 1929.52 -2655.51 -6059.12 -0.00348122 0.00809261 0.00706135 -2.66076 7.0515 5.83159
31 4.53957 -5.05962 -8.14593 1928.78 -2652.94 -6060.45 -0.0137601 0.0188299 0.00364279 -9.55654 1.94118 0.865473
32 5.18414 -6.14288 -4.60843 1929.42 -2654.02 -6056.91 0.0386036 -0.0356433 0.000701605 3.44117 0.860374 7.12311
33 6.99111 -5.48063 -3.27587 1931.23 -2653.36 -6055.58 0.0206526 0.00802548 -0.00233408 7.20661 7.14998 4.37206
34 -7.72139 -3.92286 -4.10011 1932.96 -2651.8 -6056.4 0.00262657 -0.00501531 -0.00474541 0.713568 7.64192 -7.20209
35 -7.85982 -3.22467 -6.50789 1932.82 -2651.11 -6058.81 0.00907411 -0.00511575 0.0107751 -6.87462 -0.100009 -10.1448
36 6.7297 -3.89218 -7.95789 1930.97 -2651.77 -6060.26 0.0014807 0.00574923 -0.0057465 -16.0384 -7.30984 -1.25085
37 3.2096 -5.07027 -6.3741 1927.45 -2652.95 -6058.67 -0.0115228 -0.0120127 -0.00399075 9.65052 -10.291 -9.00617
38 2.74518 -3.68766 -6.92195 1926.98 -2651.57 -6059.22 -0.00251924 0.00109549 -0.0118235 15.1959 0.0894296 6.94022
39 3.88998 -2.61655 -6.97663 1928.13 -2650.5 -6059.28 -0.00304474 -0.00448028 -0.00710449 -54.6368 -70.4532 -26.8301
40 4.26301 -1.99735 -5.86448 1928.5 -2649.88 -6058.16 0.00168354 0.00848423 -0.0081727 31.8852 45.6169 32.0558
41 5.16944 -0.944277 -5.96872 1929.41 -2648.83 -6058.27 -0.00337627 -0.00325918 -0.000986752 -3.12284 12.9229 34.9913
42 5.64543 -0.456724 -7.18445 1929.88 -2648.34 -6059.48 -0.0021516 -0.00396562 -0.00203051 2.39391 -20.0408 -52.4518
43 5.37516 -1.2269 8.08897 1929.61 -2649.11 -6060.66 0.00044954 -0.00193393 -0.00178264 -34.0077 -5.1246 36.3666
44 4.45887 -2.33681 -8.19721 1928.7 -2650.22 -6060.5 0.00486002 -0.00866989 -0.00358659 39.4894 40.7694 -41.987
45 2.40133 -5.81196 -6.37111 1926.64 -2653.69 -6058.67 -0.00392216 -0.0202777 0.00969725 -0.232907 1.26871 -8.5899
46 3.46418 -4.99447 -5.30975 1927.7 -2652.88 -6057.61 0.0272093 -0.0250841 -0.0122559 -6.44858 6.10915 -3.46362
47 2.3506 -3.91488 -7.91999 1926.59 -2651.8 -6060.22 -0.0220279 0.0124481 -0.00665771 -2.09423 9.96312 0.953761
48 3.81846 -2.14178 -4.88421 1928.05 -2650.02 -6057.18 0.0189253 0.0338825 0.0034831 1.4977 -10.4889 -2.62816
49 5.35503 -0.442914 -5.02342 1929.59 -2648.32 -6057.32 -0.00364302 0.0226763 -0.0147726 8.49143 10.8549 -6.19082
50 6.17848 0.474155 -7.35392 1930.42 -2647.41 -6059.65 -0.0130983 0.00507365 0.0136207 3.24245 -0.29893 19.464
51 5.62188 -0.825911 7.11033 1929.86 -2648.71 -6061.64 -0.00195048 0.00201286 -0.0007812 5.34952 -7.95137 2.10653
52 4.16407 -2.85552 7.34184 1928.4 -2650.74 -6061.4 0.0138607 -0.0113138 -0.00502211 -5.55276 -3.38945 3.50914
53 1.6249 -3.25488 -5.98681 1925.86 -2651.14 -6058.29 -0.0131032 -0.00792568 -0.00852961 -32.3062 -19.5058 12.9007
54 0.613503 -2.21488 -6.46669 1924.85 -2650.1 -6058.77 0.00957052 0.00783121 -0.0148885 -42.642 40.461 -31.1085
55 -0.311459 -2.71773 -7.67363 1923.93 -2650.6 -6059.97 0.0050536 -0.00959867 -2.20378e-05 18.932 7.81732 48.8236
56 -1.17151 -3.73498 -7.36151 1923.07 -2651.62 -6059.66 0.00237944 -0.000400538 -0.00578353 6.63833 -60.475 -2.64507
57 -1.87611 -4.39671 8.10754 1922.36 -2652.28 -6060.64 0.00037234 -0.00723251 0.00202984 -49.8448 30.1439 -29.371
58 -2.17807 -3.70778 6.88907 1922.06 -2651.59 -6061.86 -0.00275487 0.00160947 -0.00058923 1.8331 -30.6808 14.2819
59 -1.4302 -2.60873 6.56209 1922.81 -2650.49 -6062.18 0.00913724 -0.00592085 -0.00209792 47.138 38.2231 22.3041
60 -0.43419 -2.13397 7.51006 1923.8 -2650.01 -6061.24 -0.00596008 -0.00103077 -0.00938806 -16.3159 7.97961 -26.6065
61 1.95205 -3.02464 -4.96535 1926.19 -2650.91 -6057.26 -0.019685 -0.00672963 -0.00668304 3.1335 0.964092 -1.49399
62 1.03657 -4.16923 -5.84105 1925.27 -2652.05 -6058.14 -0.00494801 -0.0139268 -0.0131768 -5.17348 0.988839 5.54146
63 1.21545 -1.3981 -6.88374 1925.45 -2649.28 -6059.18 0.030484 0.012642 0.0249026 -2.87184 1.50414 6.53346
64 -1.05749 -4.39419 -6.50604 1923.18 -2652.28 -6058.81 -0.0204463 -0.00260283 -0.00441014 4.19582 20.1593 17.1365
65 -2.54681 -5.18781 -8.01688 1921.69 -2653.07 -6060.32 -0.00916647 -0.00170622 -0.00415547 7.49809 -7.93606 -5.12399
66 -2.94758 -4.05804 6.20747 1921.29 -2651.94 -6062.54 0.00374896 0.00838707 -0.0114161 0.908611 -3.42122 1.50781
67 -1.56239 -2.05211 5.639 1922.67 -2649.93 -6063.11 -0.00509124 0.0171004 0.0137913 -5.07017 -6.70228 -0.220139
68 0.121466 -1.22656 7.29267 1924.36 -2649.11 -6061.45 0.0159193 -0.00830347 0.0162645 1.91938 -4.70562 -3.06097
69 -0.297835 -1.63231 -5.21216 1923.94 -2649.51 -6057.51 0.00717764 0.00710178 -0.0151764 27.2604 -36.5304 -14.7652
70 -1.55769 -0.756632 -5.50653 1922.68 -2648.64 -6057.81 0.00745308 -0.00556696 -0.00304279 7.79207 -20.8572 -14.1607
71 -2.36036 -0.248092 -4.34102 1921.88 -2648.13 -6056.64 0.00136182 -0.000464847 -0.00439169 -29.8915 -41.273 -26.6744
72 -1.71265 0.488318 -3.38585 1922.52 -2647.39 -6055.69 -0.00362595 0.00397514 -0.00859857 18.3785 -22.4756 2.67053
73 -2.41001 1.03326 -2.38197 1921.83 -2646.85 -6054.68 -0.00108243 -0.0012921 -0.00204666 31.6214 26.4332 14.9753
74 -3.76815 0.92232 -2.31159 1920.47 -2646.96 -6054.61 0.00189877 -0.0032416 0.00339613 -32.1472 -2.25128 -8.62926
75 -4.45119 0.193291 -3.3118 1919.79 -2647.69 -6055.61 -0.00336252 -0.00703285 -0.000162119 -27.8566 -6.56933 20.1312
76 -3.79274 -0.527226 -4.30288 1920.44 -2648.41 -6056.6 0.00725841 -0.00406033 -0.00206484 60.7127 45.7367 9.05186
77 0.43712 -1.1366 -4.566 1924.67 -2649.02 -6056.87 0.0187302 -0.0168877 -0.00983179 -11.0228 2.7374 6.65502
78 -0.688511 -2.52271 -4.70425 1923.55 -2650.4 -6057 -0.0210643 0.0197151 -0.0147844 5.44443 3.14186 7.50719
79 -2.24693 -1.43669 -6.02217 1921.99 -2649.32 -6058.32 0.00179608 -0.0187065 0.0216865 5.02803 5.38291 -12.5895
80 -0.632478 0.463099 -3.27634 1923.6 -2647.42 -6055.58 -0.0069654 0.00527042 0.0254636 0.490376 8.78483 -13.0233
81 -1.76649 1.66285 -1.77461 1922.47 -2646.22 -6054.07 -0.00485676 0.0149531 -0.0148313 -18.9452 3.02696 21.4019
82 -4.34828 1.44653 -1.55789 1919.89 -2646.43 -6053.86 0.00337757 0.00399404 -0.000499516 3.957 1.25787 3.1605
83 -5.53475 0.152996 -3.25121 1918.7 -2647.73 -6055.55 -0.00369426 -0.0366333 -0.026241 0.720454 0.593581 -4.83205
84 -4.31564 -0.901741 -5.17793 1919.92 -2648.78 -6057.48 0.012273 0.009311 -0.010898 -0.918961 -20.0315 15.4435
85 -1.05882 0.378497 -6.37342 1923.18 -2647.5 -6058.67 -0.000784921 0.00377534 0.00103717 11.5121 -8.78765 -6.1361
86 -2.08019 1.36792 -6.84374 1922.16 -2646.51 -6059.14 -0.0026074 -0.0065899 -0.00259032 -20.4554 37.8468 -21.5269
87 -3.35315 0.647392 -7.29249 1920.88 -2647.23 -6059.59 0.00779723 -0.00256959 -0.00320077 53.1927 3.47424 -14.3138
88 -3.25563 -0.120957 8.01929 1920.98 -2648 -6060.73 0.00443435 0.0015146 -0.00251743 -26.3685 -37.1176 -17.4731
89 -4.38672 -0.795088 7.54861 1919.85 -2648.68 -6061.2 -0.00132857 0.0094563 -0.00528147 10.2485 38.9956 -27.3386
90 -5.64252 -0.499028 8.09124 1918.59 -2648.38 -6060.65 0.012761 -0.00562761 -0.00183203 10.8702 -41.4146 -26.0902
91 -5.70242 0.31518 -7.28732 1918.53 -2647.57 -6059.59 -8.93395e-05 -0.00300415 0.014836 -19.2823 13.4102 58.0775
92 -4.55147 0.856011 -6.71766 1919.69 -2647.03 -6059.02 0.00818723 -0.00879647 -0.00571613 3.19883 38.914 -6.23479
93 -0.20105 0.812955 -5.84532 1924.04 -2647.07 -6058.14 0.0362064 -0.0295043 -0.0316136 -5.70909 9.2788 -14.136
94 -0.753601 -0.0655382 -7.32897 1923.48 -2647.95 -6059.63 -0.0179516 -0.0103263 0.00205302 17.2916 -2.58627 6.84098
95 -2.34482 2.0617 -6.03625 1921.89 -2645.82 -6058.34 -0.044984 -0.0173294 -0.00714289 8.64328 1.3921 -2.65651
96 -2.36927 -0.230424 7.40141 1921.87 -2648.11 -6061.34 0.000125436 0.00196018 -0.00880616 4.68039 2.36067 7.70658
97 -4.28968 -0.999679 6.48648 1919.95 -2648.88 -6062.26 0.00786309 -0.0207245 0.00153166 -12.1724 -26.234 4.66822
98 -6.5094 -1.05774 7.75103 1917.73 -2648.94 -6060.99 0.00781819 0.00545074 -0.00734031 -4.68397 6.79312 -3.49458
99 -6.61366 0.360239 -6.69824 1917.62 -2647.52 -6059 0.00441798 0.0110652 0.0207302 -7.95957 8.36995 -6.56366
100 -4.4834 1.63343 -5.96243 1919.75 -2646.25 -6058.26 -0.00727605 0.00368575 -0.0172277 -31.0221 -7.69768 11.7283
101 -1.53267 2.16034 -8.14189 1922.7 -2645.72 -6060.44 0.00903006 0.00783573 -0.0012006 -21.8328 6.22662 9.59533
102 -0.669199 3.45851 -7.89935 1923.57 -2644.42 -6060.2 0.00882681 -0.00157045 -0.0136671 20.8172 -3.71188 0.769036
103 0.844705 3.26839 -8.08862 1925.08 -2644.61 -6060.39 0.00194002 0.00355294 -0.0097116 22.0397 -4.25221 1.24048
104 1.3962 2.73612 7.16505 1925.63 -2645.14 -6061.58 0.00217176 -0.00101537 -0.0148036 -8.55826 -22.8902 -33.4414
105 2.75808 2.37315 6.9011 1926.99 -2645.51 -6061.84 0.00443692 -0.00649259 -0.00268255 -3.86554 26.5928 56.1646
106 3.67286 2.62728 7.99517 1927.91 -2645.25 -6060.75 0.00989689 0.00945264 0.00276233 -46.8334 12.9212 39.6866
107 3.12244 3.18334 -7.16263 1927.36 -2644.7 -6059.46 0.00866091 -0.00529292 -0.00569199 17.9427 -14.3826 -74.6386
108 1.74809 3.61867 -7.0676 1925.98 -2644.26 -6059.37 -0.0071111 0.00202114 -0.0131985 39.6505 -37.4833 18.1651
109 -2.365 2.55391 7.70815 1921.87 -2645.33 -6061.04 -0.0063774 -0.0214291 0.00114297 -11.7317 -9.02481 12.8184
110 -1.20597 1.41799 7.56595 1923.03 -2646.46 -6061.18 0.0239179 0.00246834 0.0108796 29.4683 15.8761 0.683594
111 -0.779874 3.76641 -6.85228 1923.46 -2644.11 -6059.15 -0.00601478 0.0108802 -0.0189242 -7.6982 -1.26422 -1.58996
112 0.706729 2.4461 6.3777 1924.94 -2645.43 -6062.37 0.0125813 -0.00835991 -0.0212408 -5.00768 4.06003 -0.622308
113 3.02904 1.8807 5.97187 1927.27 -2646 -6062.77 0.0161743 -0.0316531 0.0140833 4.68583 4.77569 7.5579
114 4.71119 2.31141 7.95639 1928.95 -2645.57 -6060.79 0.00734613 0.00121912 0.00156568 -4.26569 1.53823 -4.47452
115 3.81355 3.24443 -6.32714 1928.05 -2644.64 -6058.63 -0.00493344 -0.00579964 0.00553391 -9.20726 5.32793 1.19633
116 1.43449 3.84951 -6.05381 1925.67 -2644.03 -6058.35 -0.0313949 -0.00210458 -0.0198446 -11.2941 10.6983 -7.7482
117 -1.10556 4.62638 7.6128 1923.13 -2643.25 -6061.13 -0.00371545 -0.0074411 -0.00174618 -5.58656 -15.7163 1.16783
118 -2.26617 5.50088 -8.21739 1921.97 -2642.38 -6060.52 0.00788967 -0.0132944 -0.0131945 21.7628 32.4703 1.07547
119 -1.66429 6.43348 -7.0844 1922.57 -2641.45 -6059.38 -0.00204257 0.00728765 -0.00693673 -35.9905 -74.8368 16.6555
120 -1.84103 5.92734 -5.75817 1922.4 -2641.95 -6058.06 -0.00744311 0.000759589 0.00388966 4.33783 21.7888 -4.50505
121 -1.30605 6.60734 -4.68204 1922.93 -2641.27 -6056.98 0.000725457 0.00601444 -0.00101175 -14.3742 18.0641 -2.02185
122 -0.608208 7.84619 -4.85086 1923.63 -2640.03 -6057.15 0.00137065 -0.00413017 -0.00661089 -52.6984 -65.7137 9.82753
123 -0.357052 -8.21008 -6.18049 1923.88 -2639.64 -6058.48 0.00305046 -0.00775442 0.00393051 20.8239 27.1111 38.3088
124 -0.844971 7.51563 -7.28346 1923.39 -2640.37 -6059.58 0.000107464 0.00404034 -0.000913373 16.5817 3.662 -17.1908
125 -1.44502 4.17353 6.67306 1922.79 -2643.71 -6062.07 -0.0197052 -0.0260421 0.0129785 -1.73496 3.49659 0.335834
126 -0.207929 5.17305 7.29847 1924.03 -2642.71 -6061.45 0.00326654 -0.0206523 -0.00496459 -7.56103 13.6719 7.81783
127 -2.98875 4.81086 -7.76443 1921.25 -2643.07 -6060.06 0.00850562 -0.00950692 -0.00642787 -2.87554 4.47283 -5.08164
128 -2.49034 5.10925 -5.46064 1921.75 -2642.77 -6057.76 0.00212164 -0.0113509 -0.00876666 -0.268181 -4.05656 -21.3308
129 -1.79076 6.29292 -3.76248 1922.45 -2641.59 -6056.06 0.000817528 0.0232153 0.00486543 19.8738 10.4962 13.0676
130 -0.571478 -8.04598 -3.9177 1923.67 -2639.48 -6056.22 -0.00817677 0.0170307 -0.0189053 24.7791 19.3913 -17.1004
131 0.277489 -7.32936 -6.21334 1924.51 -2638.76 -6058.51 -0.00309766 -0.00419469 -0.0157971 -2.19773 2.797 -24.3149
132 -0.520892 7.69912 8.14288 1923.72 -2640.18 -6060.6 -0.016058 0.0185334 -0.00340516 0.250889 14.2549 1.85247
133 -2.93849 6.36752 7.088 1921.3 -2641.51 -6061.66 -0.00353872 0.0130723 -0.00720056 12.3701 0.429286 -35.1581
134 -4.41603 6.16086 6.65965 1919.82 -2641.72 -6062.09 0.00674381 0.000273252 -0.00159939 -24.3859 -50.8706 27.3108
135 -4.71663 4.8654 5.81013 1919.52 -2643.02 -6062.94 0.00109397 0.00553719 -0.0221052 67.0986 76.1236 -49.7044
136 -5.45885 3.75834 6.22262 1918.78 -2644.12 -6062.52 -0.00254861 -0.00451399 -0.00267268 -3.47255 -10.3997 4.68555
137 -5.41026 2.55408 5.48667 1918.83 -2645.33 -6063.26 0.00445203 -0.000871266 -0.00392084 45.8398 6.46019 -13.4357
138 -4.58379 2.51137 4.29265 1919.65 -2645.37 -6064.45 -0.00020654 -0.00836052 -0.00154308 -25.9836 -15.1902 6.56478
139 -3.9917 3.64903 3.77397 1920.24 -2644.23 -6064.97 0.00457104 -0.00264112 -0.00491078 26.7303 91.4148 32.324
140 -3.98567 4.91521 4.54584 1920.25 -2642.97 -6064.2 0.00570222 -0.0101069 -0.00468439 -44.0011 -89.6813 -5.13066
141 -2.75033 7.44607 7.15683 1921.49 -2640.43 -6061.59 -0.0370731 0.018848 -0.00523333 9.10562 -5.15948 15.1132
142 -2.38159 6.11986 6.17589 1921.85 -2641.76 -6062.57 -0.0103834 -0.00746124 -0.00583112 4.01433 4.88359 -1.20334
143 -4.85274 5.79584 7.59743 1919.38 -2642.09 -6061.15 0.020035 0.0109308 0.00869649 -15.119 25.634 6.70555
144 -5.95472 3.78532 7.18842 1918.28 -2644.1 -6061.56 -0.00122492 0.000996902 -0.0021447 0.643626 -3.09238 0.853843
145 -5.61641 1.63225 6.02252 1918.62 -2646.25 -6062.72 0.00448625 -0.00309414 -0.00774554 -14.8094 -0.411176 -10.1165
146 -4.42261 1.6089 3.71045 1919.81 -2646.27 -6065.04 0.00538891 0.017173 -0.0397741 -5.54058 -4.05136 12.8303
147 -3.31489 3.65582 2.92469 1920.92 -2644.23 -6065.82 0.000513156 0.0267918 -0.00805062 -10.4966 -14.5271 -4.99828
148 -3.46437 5.78624 4.15989 1920.77 -2642.09 -6064.59 -0.0296137 0.0127788 -0.000720182 -3.5224 -7.80916 10.3451
149 -5.0732 7.44726 6.01557 1919.16 -2640.43 -6062.73 0.00448187 -0.000884232 -0.000452905 19.231 50.7028 -37.6521
150 -4.85779 -7.55654 6.73332 1919.38 -2638.99 -6062.01 0.00674539 -0.00703105 0.00109671 -46.8498 -35.5547 65.945
151 -5.46421 -7.8486 8.16783 1918.77 -2639.28 -6060.58 -0.00718605 0.00184731 -0.00327123 14.1952 47.5134 7.38951
152 -6.59374 7.76888 -8.05775 1917.64 -2640.11 -6060.36 -0.00461443 -0.00145063 -0.00429138 11.716 -27.0648 33.7983
153 -6.9532 7.39402 -6.68791 1917.28 -2640.49 -6058.99 0.00890864 -0.00839766 -0.0118318 18.8919 7.29278 -71.3273
154 -6.46615 8.186 -5.67837 1917.77 -2639.7 -6057.98 0.00294727 -0.000296577 -0.0132728 17.0469 -20.2822 35.4556
155 -5.44989 -7.34255 -5.88168 1918.79 -2638.78 -6058.18 -0.0112028 -0.011452 -0.00612349 -0.276018 37.8001 -22.3652
156 -5.0063 -7.03929 -7.19022 1919.23 -2638.47 -6059.49 0.00820778 0.00214363 -0.00957254 -8.35824 -32.5458 -24.8203
157 -4.53907 7.72804 5.09945 1919.7 -2640.15 -6063.65 -0.0097956 -0.0237224 -0.0156509 3.87933 -19.2803 -6.47251
158 -6.07158 7.2349 5.61364 1918.16 -2640.65 -6063.13 0.0224884 -0.0337953 -0.0280117 1.39368 6.81715 9.06139
159 -3.79963 -7.26774 6.71624 1920.44 -2638.7 -6062.03 0.0065665 -0.00843131 -0.0355101 -5.40501 -8.54292 9.87462
160 -6.90651 7.15635 7.54827 1917.33 -2640.72 -6061.2 0.00219118 -0.00129968 -0.00697766 -17.468 -5.07286 11.9515
161 -7.30171 6.3848 -6.48935 1916.93 -2641.5 -6058.79 0.0411899 -0.0138699 0.0174236 -14.4575 12.085 0.551278
162 -6.57603 7.83659 -4.65601 1917.66 -2640.04 -6056.96 -0.000231345 0.0220699 -0.00602625 -8.26903 8.85699 4.19435
163 -5.11006 -6.71685 -5.06167 1919.13 -2638.15 -6057.36 -0.00321825 -0.0151856 -0.00659489 2.56013 -3.77846 2.11831
164 -4.28215 -6.27117 -7.44518 1919.95 -2637.71 -6059.74 0.030019 -0.0189362 -0.0111967 -0.0543595 0.236562 17.5771
165 -5.57668 -6.24744 6.26826 1918.66 -2637.68 -6062.48 -0.00669683 0.0142815 -0.00712664 21.8739 -65.5398 -24.3724
166 -6.63887 -6.48608 6.13332 1917.6 -2637.92 -6062.61 0.00543817 -0.0233585 -0.037918 1.12958 17.2784 8.562
167 -5.09874 -6.26939 5.2811 1919.14 -2637.7 -6063.46 -0.00511161 0.00657467 -0.00625004 -7.95399 30.2225 -7.27938
168 -5.27261 -5.41315 6.9124 1918.96 -2636.85 -6061.83 0.0545647 -0.00409829 -0.0119234 -14.3045 -2.98215 -13.1362
169 7.6878 -3.70812 3.17092 1800.35 -2585.8 -6164.25 -0.00805194 0.00352658 -0.00623616 40.9616 -12.5566 -25.3157
170 7.61215 -4.5999 3.80528 1800.28 -2586.7 -6163.62 0.00474593 0.0153784 0.0120338 -10.5759 -0.970505 -6.13652
171 -7.67508 -3.57216 3.06728 1801.44 -2585.67 -6164.36 -0.00357156 -0.0128002 0.0195889 1.50859 9.20904 13.6954
172 7.51343 -3.85743 2.09821 1800.18 -2585.95 -6165.33 0.0297201 -0.0156133 -0.00986478 -20.0934 -8.04304 6.79575
173 7.01934 -2.49568 3.7557 1799.68 -2584.59 -6163.67 0.00581043 0.00659314 -0.0113782 -20.8469 28.4633 -0.000508955
174 6.43507 -1.45723 2.71771 1799.1 -2583.55 -6164.71 -0.0036025 0.00234015 -0.00125585 13.3516 5.09563 -20.8278
175 4.9509 -1.26228 2.87032 1797.62 -2583.36 -6164.55 0.00154672 -0.00433521 -0.00712464 5.6817 1.37561 21.7776
176 4.14219 -1.41249 1.78314 1796.81 -2583.51 -6165.64 0.00155117 0.00551908 -0.00610981 -29.9089 -5.34006 -40.1442
177 2.74561 -1.29079 1.87115 1795.41 -2583.39 -6165.55 -0.00540844 -0.00485403 0.00283289 -21.891 22.9718 27.7566
178 2.13008 -0.919997 3.11746 1794.79 -2583.02 -6164.31 -0.0104673 0.00432201 -0.0032153 13.3508 -11.3206 -46.0134
179 2.95309 -0.791951 4.19732 1795.62 -2582.89 -6163.23 0.0055419 -0.00398897 -0.000933358 35.911 -9.685 51.3607
180 4.38598 -0.983572 4.12228 1797.05 -2583.08 -6163.3 -0.0034516 -0.00347874 -0.00205771 -9.78404 2.14068 -30.056
181 7.72462 -1.95779 4.4012 1800.39 -2584.05 -6163.02 0.020626 -0.0283468 0.00143725 -4.70455 -6.9994 5.04348
182 6.15979 -2.87411 4.32259 1798.82 -2584.97 -6163.1 0.0271211 0.0163936 0.0272651 10.4666 0.650779 8.63649
183 6.58035 -1.88359 1.71745 1799.25 -2583.98 -6165.71 0.0327027 -0.00619913 0.00768598 3.90662 0.204781 2.297
184 4.54206 -1.61056 0.793059 1797.21 -2583.71 -6166.63 0.0275234 -0.0330949 0.0121998 4.32195 -3.17989 6.03691
185 2.11988 -1.32344 0.984134 1794.78 -2583.42 -6166.44 -0.00496987 -0.00421108 0.00249977 4.78349 -5.32418 -2.05856
186 1.06197 -0.751112 3.21755 1793.73 -2582.85 -6164.21 -0.0132897 0.00288551 -0.0308336 2.66864 -2.93376 -2.60153
187 2.47844 -0.710488 5.1707 1795.14 -2582.81 -6162.25 0.00970107 -0.0301378 0.00334226 3.4905 9.42949 1.89339
188 5.13102 -0.928663 4.91051 1797.8 -2583.02 -6162.51 -0.00603937 0.0141382 -0.000889862 -23.829 6.46811 17.6848
189 7.17957 -0.0617942 2.70795 1799.84 -2582.16 -6164.72 -0.00431268 -0.00769496 -0.00332021 -21.9843 0.572651 -22.7714
190 6.85666 0.995025 1.534 1799.52 -2581.1 -6165.89 0.0109228 -0.00017758 -0.00247445 15.061 -9.98259 33.8031
191 7.08608 0.351151 0.244778 1799.75 -2581.74 -6167.18 0.00424493 -0.010963 -0.00361004 -35.3133 -18.0176 -63.2506
192 5.93779 0.164453 -0.639087 1798.6 -2581.93 -6168.06 -0.00255852 0.00314678 -0.00938883 31.008 -3.22972 61.2667
193 6.11024 -0.651028 -1.67122 1798.78 -2582.75 -6169.1 0.000486871 -0.00896704 -0.00675689 13.0428 -21.5818 -73.1247
194 7.38798 -0.969441 -2.2307 1800.05 -2583.06 -6169.66 0.00859171 0.00288558 -0.0134865 3.40165 0.304506 38.8171
195 -7.87307 -0.756274 -1.40595 1801.24 -2582.85 -6168.83 0.00646167 -0.00515885 -0.00213105 -40.1033 10.6879 -30.8338
196 -8.05811 -0.049895 -0.204435 1801.05 -2582.15 -6167.63 0.0158213 -0.00312097 -0.00855609 -5.56673 -9.40967 12.4997
197 7.06831 0.386143 3.70313 1799.73 -2581.71 -6163.72 0.0183365 -0.00654523 -0.00135555 8.685 3.57798 -3.59028
198 8.22038 -0.271439 2.43199 1800.89 -2582.37 -6164.99 -0.00288169 0.00493124 -0.00773507 3.37657 -11.7015 28.6442
199 5.83132 1.38487 1.54436 1798.5 -2580.71 -6165.88 0.0143824 0.00929874 -0.0147499 2.61764 0.88553 12.3097
200 4.89371 0.315742 -0.3814 1797.56 -2581.78 -6167.81 0.00944754 0.0335501 0.0207746 11.179 15.1919 12.172
201 5.21648 -0.94255 -2.21491 1797.88 -2583.04 -6169.64 0.0131006 -0.0270004 -0.0178412 1.07002 -0.405595 -4.15868
202 7.37427 -1.46004 -3.19947 1800.04 -2583.56 -6170.62 0.0309195 0.0217361 -0.0232915 14.9898 -1.6387 6.27933
203 -6.87391 -1.02886 -1.73269 1802.24 -2583.12 -6169.16 0.0131626 0.0333899 -0.0138632 -7.92593 -0.899974 -2.72366
204 -7.19353 0.103073 0.434701 1801.92 -2581.99 -6166.99 0.00447037 -0.0101597 0.00851997 1.07993 1.81251 -3.44284
205 7.92391 2.11542 1.68357 1800.59 -2579.98 -6165.74 -0.0068667 0.00526701 0.000828611 -12.5711 3.55983 23.9954
206 7.95771 3.18824 0.4844 1800.62 -2578.91 -6166.94 -0.00903083 -0.000812875 -0.00946179 12.0339 -80.2272 39.8789
207 -7.18916 3.89245 0.360431 1801.92 -2578.2 -6167.06 0.0060135 0.00313164 -0.00885992 44.0663 50.396 26.6449
208 -6.83281 4.92628 1.28691 1802.28 -2577.17 -6166.14 0.00470163 0.0033732 0.00841538 22.797 -22.7165 -18.8485
209 -5.66791 5.73474 1.00938 1803.44 -2576.36 -6166.42 0.00354237 0.00802143 -0.00019211 -18.0106 6.51498 32.5306
210 -4.87571 5.62751 -0.145641 1804.24 -2576.47 -6167.57 -0.00608496 0.010186 -0.000243941 -25.1663 10.8524 39.5924
211 -5.30034 4.66531 -1.00339 1803.81 -2577.43 -6168.43 0.00329326 0.00782613 -0.00312029 32.3828 -26.7442 -32.8395
212 -6.2861 3.74601 -0.712747 1802.83 -2578.35 -6168.14 -0.00065306 0.00632673 -0.00500865 -28.065 -10.4294 -24.3005
213 7.72768 2.55336 2.67003 1800.39 -2579.54 -6164.75 -0.00943566 0.0429927 -0.0165859 -3.33344 14.5833 -9.04864
214 -7.60362 1.58759 1.96702 1801.51 -2580.51 -6165.46 -0.00916605 0.00014833 -0.0011441 19.2684 22.8731 -22.7018
215 7.9066 2.53516 -0.39553 1800.57 -2579.56 -6167.82 -0.0114539 -0.0142051 0.00052036 -14.137 15.8761 -11.6598
216 -7.30898 4.93966 2.26286 1801.8 -2577.16 -6165.16 -0.022499 0.014038 -0.00507466 -2.89513 11.4106 -6.69084
217 -5.40417 6.46175 1.77181 1803.71 -2575.63 -6165.65 -0.0140048 0.00607129 0.00778059 5.36011 1.58876 -1.83565
218 -3.99421 6.2503 -0.26599 1805.12 -2575.84 -6167.69 -0.00968512 0.0103982 -0.0249922 -2.04116 -4.0181 -8.99138
219 -4.71775 4.42636 -1.8882 1804.39 -2577.67 -6169.31 -0.0105087 0.0289978 -0.0178715 4.73807 10.2384 -2.44648
220 -6.42892 3.03362 -1.5199 1802.68 -2579.06 -6168.94 -0.0112615 -0.0184336 0.0188644 -12.5778 -7.62315 9.62893
221 6.76747 4.07391 0.737864 1799.43 -2578.02 -6166.69 0.00829751 -0.0107636 0.00065339 -17.7768 54.8868 -37.4899
222 6.86992 5.37827 -0.207915 1799.53 -2576.72 -6167.63 -0.00445372 0.00123346 -0.00810233 -7.32084 -18.8621 21.8792
223 7.30202 5.02354 -1.575 1799.97 -2577.07 -6169 0.00146641 -0.00734309 -0.00338349 -26.2655 -85.5588 -32.9345
224 6.57003 3.87251 -2.25738 1799.23 -2578.22 -6169.68 0.00273539 -0.00900313 -0.00662702 37.9528 84.648 18.0172
225 6.73707 3.69616 -3.66787 1799.4 -2578.4 -6171.09 0.00628779 -0.0134497 -0.00526805 3.54328 -14.9718 43.8431
226 7.78925 4.36356 -4.28899 1800.45 -2577.73 -6171.71 -0.00588664 -0.00212046 -0.00254177 -14.4404 27.6393 11.0851
227 -7.96773 5.43714 -3.58504 1801.14 -2576.66 -6171.01 -0.00173903 0.0117607 0.0120967 10.7029 -27.8777 -23.0089
228 -8.14706 5.74764 -2.21394 1800.96 -2576.35 -6169.64 -0.00479658 0.00366637 -0.0086125 -24.0745 -2.26077 -34.857
229 6.76827 4.34533 1.80076 1799.43 -2577.75 -6165.62 0.0432866 0.00334536 -0.00293862 -7.8368 6.03918 -6.76807
230 5.81004 3.60402 0.481116 1798.47 -2578.49 -6166.94 0.0123424 -0.0178464 -0.00139584 2.31152 -9.21655 8.77317
231 7.51664 6.07061 0.345104 1800.18 -2576.02 -6167.08 -0.00803518 0.00121878 -0.00384766 15.3226 -3.43661 -14.7152
232 5.78596 3.37652 -1.6929 1798.45 -2578.72 -6169.12 -0.0075303 -0.0092259 -0.0211725 1.03304 -5.22102 -13.7316
233 6.13606 2.95528 -4.18679 1798.8 -2579.14 -6171.61 -0.0176908 0.00785495 -0.00789466 3.36765 3.74573 -2.19591
234 7.83559 4.2007 -5.36171 1800.5 -2577.89 -6172.79 -0.0257411 0.0243097 -0.00746256 17.7266 7.2366 3.54815
235 -7.20492 5.96133 -4.15314 1801.91 -2576.13 -6171.58 0.0196339 -0.008319 0.0222289 -1.77893 2.62055 3.14375
236 -7.79267 6.68983 -1.80642 1801.32 -2575.41 -6169.23 0.00841031 -0.0017008 -0.00779084 9.74881 -7.66174 2.85151
237 5.61009 6.1609 -0.556058 1798.27 -2575.93 -6167.98 0.0149964 -0.00586774 0.000567635 -53.1671 28.2363 49.5897
238 5.12156 6.99596 0.643026 1797.79 -2575.1 -6166.78 0.0124381 -0.0123762 -0.00399787 8.51373 18.8658 23.9184
239 6.25866 7.96539 0.989639 1798.92 -2574.13 -6166.44 0.00288134 -0.00166316 -0.00713102 -18.7631 18.0229 46.3874
240 6.81819 8.07207 2.32536 1799.48 -2574.02 -6165.1 0.00985396 -0.00666823 -0.00655695 -24.9838 -42.3438 -25.6935
241 7.72652 -7.42084 2.6666 1800.39 -2573.07 -6164.76 -0.00487941 0.00803859 -0.0104187 28.1992 13.4276 41.6378
242 -8.21786 -6.55195 1.77195 1800.89 -2572.2 -6165.65 0.00190729 -0.0111587 -0.00157201 -27.526 26.365 -102.235
243 7.55616 -6.46478 0.482532 1800.22 -2572.11 -6166.94 -0.000284213 -0.000828723 -0.00197509 28.0522 -22.7504 63.1578
244 6.58285 -7.46972 0.120771 1799.25 -2573.12 -6167.3 -0.00661505 -0.00597046 -0.00631066 51.6504 81.1236 -27.6496
245 4.65723 5.61778 -0.578367 1797.32 -2576.48 -6168 0.0130188 -0.00370229 0.024059 13.1154 -24.1829 -29.6041
246 5.75516 6.87675 -1.37455 1798.42 -2575.22 -6168.8 0.00252504 0.00200376 0.00520662 -5.44971 -10.3419 -6.39239
247 5.05705 6.32859 1.51128 1797.72 -2575.77 -6165.91 0.0290032 -0.00336565 0.00421058 -8.42491 -1.66524 -2.35581
248 6.67508 7.28873 3.06381 1799.34 -2574.81 -6164.36 -0.0230795 -0.00211533 -0.00822723 -14.0795 1.50202 -2.75461
249 8.11289 -7.31998 3.67652 1800.78 -2572.97 -6163.75 0.00539243 0.0146187 -0.0149816 1.0601 -13.4939 5.02734
250 -7.36619 -5.88653 1.87808 1801.75 -2571.54 -6165.55 0.00285639 -0.0153617 0.0160274 -3.61455 -2.6657 24.0749
251 7.93639 -5.63984 -0.112691 1800.6 -2571.29 -6167.54 0.0108111 0.00333011 0.0106814 -16.4027 -11.8983 -19.1263
252 6.25911 -7.27609 -0.897609 1798.92 -2572.92 -6168.32 -0.00487628 0.00166553 -0.00547243 -23.1421 -26.2389 0.466837
253 3.69064 7.76095 0.452606 1796.36 -2574.33 -6166.97 -0.000384784 -0.00800713 0.00621926 6.4428 -24.3188 24.7427
254 2.35974 7.02935 1.081 1795.02 -2575.07 -6166.34 -0.00897841 -0.00587481 -0.0139512 16.1954 42.9139 12.0203
255 2.16431 5.67249 0.537941 1794.83 -2576.42 -6166.89 0.00804242 -0.00686134 -0.00230463 9.57413 23.6967 -41.3417
256 1.84421 5.659 -0.808657 1794.51 -2576.44 -6168.23 -0.0103826 -0.00497394 0.00218669 -21.3702 1.3779 -25.7626
257 1.70127 4.46491 -1.49409 1794.37 -2577.63 -6168.92 0.0027945 0.0012654 -0.0115648 -3.47515 -33.9962 3.2123
258 1.9053 3.24806 -0.796699 1794.57 -2578.85 -6168.22 0.00899892 -0.00488411 0.00597984 11.0099 4.89431 -0.15164
259 2.36596 3.2724 0.534258 1795.03 -2578.82 -6166.89 -0.00461927 0.00146914 -0.0089289 -26.975 -12.6909 -30.2867
260 2.44014 4.49811 1.19511 1795.1 -2577.6 -6166.23 -0.00135914 -0.0107614 0.00365976 9.93774 -28.4731 30.7897
261 3.65532 -7.76084 1.04177 1796.32 -2573.41 -6166.38 0.0209468 -0.00951873 0.00976962 17.1739 3.05373 -6.91157
262 3.66988 8.07282 -0.598925 1796.33 -2574.02 -6168.02 0.0129173 0.0173124 0.0134073 -18.5399 -4.19636 3.84332
263 2.51721 6.89084 2.15777 1795.18 -2575.2 -6165.27 0.018908 0.0280111 -0.0137038 3.08406 7.33576 -3.07542
264 1.51392 6.5463 -1.34064 1794.18 -2575.55 -6168.77 0.0089014 0.0280916 0.0456009 11.6616 0.60138 5.51183
265 1.34446 4.42667 -2.51909 1794.01 -2577.67 -6169.94 0.00583094 0.0340093 -0.0137893 1.73277 5.23296 1.82379
266 1.7448 2.28057 -1.26316 1794.41 -2579.81 -6168.69 -0.0209618 0.0126456 -0.019952 -0.636101 7.21755 -3.88382
267 2.41183 2.29295 1.00113 1795.08 -2579.8 -6166.42 -0.000826747 -0.00537094 -0.0235292 10.5835 8.65002 15.0353
268 2.66623 4.4617 2.25669 1795.33 -2577.63 -6165.17 -0.00408738 0.00659631 0.00479864 3.05346 9.02504 1.78582
269 1.09929 8.04041 0.898602 1793.76 -2574.05 -6166.53 -0.0107981 -0.00645527 -0.00427446 6.452 -36.8853 5.95366
270 -0.3473 7.37916 0.937307 1792.32 -2574.72 -6166.49 0.00747937 -0.0202266 -0.0018432 76.448 -42.4096 -19.5713
271 -0.289888 6.05298 1.80669 1792.37 -2576.04 -6165.62 -0.00194163 0.003334 -0.00842692 -25.5429 -17.3719 -21.6272
272 0.144933 6.06381 3.13411 1792.81 -2576.03 -6164.29 0.00576674 -0.00872261 0.0034903 3.93763 25.9974 50.1663
273 0.0480293 4.98468 4.04388 1792.71 -2577.11 -6163.38 0.00146667 -0.0054869 0.00235505 9.4574 37.4999 -4.75286
274 -0.370844 3.84567 3.56313 1792.29 -2578.25 -6163.86 -0.00784996 -0.00368253 0.000538849 -18.3416 -85.3743 -66.8101
275 -0.535201 3.62942 2.14951 1792.13 -2578.47 -6165.28 0.00930481 0.00713927 -0.015399 -7.068 14.6976 28.132
276 -0.587523 4.74894 1.26003 1792.08 -2577.35 -6166.16 0.00602824 -0.0152643 -0.0137555 3.615 16.0136 19.1707
277 1.27782 -7.97992 -0.0963488 1793.94 -2573.63 -6167.52 -0.0126832 0.00548426 0.000544152 -8.60488 11.7283 5.65193
278 1.09285 -7.63406 1.67793 1793.76 -2573.28 -6165.75 0.0279641 -0.0135364 0.00296255 12.8837 0.414428 -7.86843
279 -0.53237 7.122 -0.112943 1792.13 -2574.97 -6167.54 0.00430876 -0.0238622 -0.000383834 -7.67776 -4.6824 1.19492
280 0.457617 6.98221 3.62213 1793.12 -2575.11 -6163.8 0.00965287 -0.0163071 0.0153714 0.392206 9.41565 -10.5555
281 0.301865 5.00586 5.09958 1792.97 -2577.09 -6162.33 -0.00438744 -0.00615567 0.00378134 3.72433 15.3048 -1.4469
282 -0.475723 2.94173 4.15583 1792.19 -2579.15 -6163.27 0.0245915 -0.00849538 -0.00109623 4.76828 7.57762 13.5009
283 -0.727307 2.59663 1.87411 1791.94 -2579.5 -6165.55 -0.00612661 0.00491216 0.0034785 -3.60922 8.13131 -16.0104
284 -0.842285 4.64207 0.209758 1791.82 -2577.45 -6167.21 -0.00388605 -0.0190231 -0.0109646 0.530107 -3.55121 2.33015
285 -1.34248 -8.07449 1.33062 1791.32 -2573.72 -6166.09 -0.00187321 0.00130412 -0.00712457 -53.9474 0.034171 46.4064
286 -1.38976 -6.74245 0.583871 1791.28 -2572.39 -6166.84 -0.00372755 0.00298622 0.0032215 -6.85345 -29.3444 -47.9219
287 -2.6069 -6.67275 -0.387513 1790.06 -2572.32 -6167.81 0.0128528 0.00690806 0.00167313 -45.9249 21.4184 33.2507
288 -3.95487 -6.70318 0.0959432 1788.71 -2572.35 -6167.33 -0.00495153 0.00155134 -0.00231364 22.9996 -18.2729 -17.3201
289 -5.01754 -6.80137 -0.842307 1787.65 -2572.45 -6168.27 -0.00883954 -0.00901264 0.0024484 -27.7958 28.5779 14.3473
290 -4.89988 -6.68894 -2.22732 1787.76 -2572.34 -6169.65 0.00289709 -0.0104863 -0.00603075 72.6872 -12.4414 -34.9008
291 -3.52227 -6.5994 -2.78421 1789.14 -2572.25 -6170.21 -0.00076088 -0.00960163 -0.00481397 -29.1076 23.7409 97.6078
292 -2.47289 -6.40245 -1.74395 1790.19 -2572.05 -6169.17 -0.00766019 -0.00317394 -0.00111798 -0.571567 -51.2218 -93.9058
293 -1.28514 -7.93443 2.41713 1791.38 -2573.58 -6165.01 -0.000265037 -0.0303645 -0.00308782 9.83131 6.71698 -0.0198005
294 -2.34086 7.9175 1.32131 1790.32 -2574.18 -6166.1 -0.0116913 0.0228846 -0.0103598 -0.615861 -5.18111 -11.2354
295 -0.56921 -6.7191 -0.143842 1792.1 -2572.37 -6167.57 0.022185 -0.00943472 0.0322203 8.40138 2.67557 11.8336
296 -4.1445 -6.82024 1.15883 1788.52 -2572.47 -6166.27 0.0127969 -0.0265644 -0.00219905 -1.97451 4.07763 -4.04316
297 -6.04166 -6.6896 -0.49865 1786.62 -2572.34 -6167.92 -0.0158803 -0.020067 -0.0149245 0.440487 -12.8073 10.9928
298 -5.7865 -6.79671 -2.84512 1786.88 -2572.45 -6170.27 -0.0260211 -0.00492846 0.0345266 9.64135 5.572 0.642031
299 -3.27652 -6.55751 -3.84121 1789.39 -2572.21 -6171.27 -0.0156631 -0.00744408 -0.00818365 -6.23569 -2.15878 7.69094
300 -1.4994 -6.58608 -2.18891 1791.17 -2572.23 -6169.61 0.000636745 0.0188454 0.00828446 9.77433 18.0325 8.06796
301 -1.29749 -5.61179 1.54378 1791.37 -2571.26 -6165.88 0.00834022 -0.00895281 -0.00175948 8.32094 68.1145 25.7538
302 -0.853849 -4.27417 0.818091 1791.81 -2569.92 -6166.61 0.00824731 0.000369598 0.00508341 17.0978 7.68163 13.056
303 0.582487 -4.42954 0.226148 1793.25 -2570.08 -6167.2 0.00871343 0.00187007 -0.0170124 -59.4986 3.26536 -14.9431
304 1.68597 -4.54256 1.08402 1794.35 -2570.19 -6166.34 0.00944545 -0.00269768 0.000781337 33.1632 -10.368 -24.1271
305 2.94065 -4.84889 0.482224 1795.61 -2570.5 -6166.94 0.00151455 0.00462209 -0.0115155 -14.5322 4.20722 49.959
306 3.05763 -5.07369 -0.848354 1795.72 -2570.72 -6168.27 0.00478148 -0.00384964 -0.00482348 -6.37044 -10.6346 -33.058
307 1.93698 -4.92127 -1.72824 1794.6 -2570.57 -6169.15 -0.0136648 0.00234803 0.00638901 4.91718 3.05429 7.98567
308 0.666315 -4.55564 -1.19391 1793.33 -2570.2 -6168.62 -0.00436752 0.00201286 0.00577885 36.9776 -8.61258 13.6804
309 -2.2087 -5.49792 2.1439 1790.46 -2571.15 -6165.28 -0.0075213 0.00412433 -0.0284939 -6.6596 3.01517 -13.1151
310 -0.578631 -5.69419 2.36832 1792.09 -2571.34 -6165.06 0.0127258 0.0202449 -0.00248019 6.45191 -20.4722 -8.12469
311 -1.63101 -3.99623 0.0954676 1791.03 -2569.64 -6167.33 0.02684 -0.00181944 -0.0156649 7.01648 -12.9749 -7.49997
312 1.61783 -4.47401 2.16571 1794.28 -2570.12 -6165.26 0.0123378 -0.0446467 0.00363885 -4.09016 0.401115 -6.50104
313 3.80676 -5.03861 1.10932 1796.47 -2570.69 -6166.32 0.00892082 -0.0298216 -0.0321502 -3.01047 3.08692 1.08568
314 4.01175 -5.49818 -1.14645 1796.68 -2571.15 -6168.57 0.0179434 0.0291849 -0.00954568 -4.35433 7.07366 -15.8571
315 2.05907 -5.11178 -2.7904 1794.72 -2570.76 -6170.22 0.031114 0.00850885 0.010408 -2.59336 0.331853 4.98433
316 -0.207071 -4.48315 -1.83526 1792.46 -2570.13 -6169.26 0.000590076 -0.00780475 -0.00209189 2.56232 0.802152 2.74501
317 -0.775641 -3.03025 1.75196 1791.89 -2568.68 -6165.67 -0.00787927 0.012851 -0.00964428 -3.8577 12.7552 44.1143
318 -1.34354 -1.74108 1.21731 1791.32 -2567.39 -6166.21 -0.00906391 0.00452936 -0.0129699 -21.4246 2.32247 38.5049
319 -2.89684 -1.67312 1.53097 1789.77 -2567.32 -6165.89 0.00254038 -0.0131659 -0.0124465 -28.6806 -9.01957 -65.9485
320 -3.47697 -1.50201 2.81222 1789.19 -2567.15 -6164.61 0.000818375 0.000617959 0.000320238 77.3721 11.7395 6.80532
321 -4.80718 -1.28842 3.0678 1787.86 -2566.94 -6164.36 0.0076041 -0.00444509 0.00145651 -1.53982 -13.1441 -1.78131
322 -5.61314 -1.54695 2.00724 1787.05 -2567.2 -6165.42 0.00479573 -0.00367061 -0.00827818 -34.3385 -7.82872 -42.4168
323 -5.14794 -1.8029 0.67961 1787.52 -2567.45 -6166.75 0.00380106 0.00537236 -0.011541 -21.5949 -2.75606 13.3279
324 -3.79772 -1.82196 0.41007 1788.87 -2567.47 -6167.01 -0.0101537 -0.00964936 -0.010136 65.8444 19.9263 54.3648
325 -1.1747 -3.22489 2.7551 1791.49 -2568.87 -6164.67 -0.00410424 -0.0552039 -0.0214922 -6.60808 -6.89226 -11.8729
326 0.207869 -2.64669 2.05028 1792.87 -2568.3 -6165.37 -0.00387466 0.00100201 -0.00785433 13.6442 -25.6518 -9.6584
327 -0.9051 -0.975373 1.86914 1791.76 -2566.62 -6165.56 -0.0290278 -0.00906544 0.0165333 -2.25509 4.07688 -6.41172
328 -2.70361 -1.39968 3.56776 1789.96 -2567.05 -6163.86 0.0041652 -0.00664046 -0.002092 -11.3704 2.04219 18.403
329 -5.24057 -1.12429 4.04996 1787.42 -2566.77 -6163.37 -0.00499514 -0.0286718 -1.93219e-05 8.77432 1.02797 1.57965
330 -6.68849 -1.5756 2.15623 1785.98 -2567.22 -6165.27 0.00766537 -0.0135966 0.0103164 -0.835969 -1.77331 3.63477
331 -5.87761 -2.0293 -0.0922164 1786.79 -2567.68 -6167.52 0.0061235 -0.000154389 -0.0121149 3.07751 1.91086 -4.012
332 -3.27363 -1.80093 -0.540867 1789.39 -2567.45 -6167.97 -0.013937 -0.0248523 -0.0124659 -37.1625 -11.7893 -18.3501
333 -0.802322 -1.45612 -0.201479 1791.86 -2567.1 -6167.63 0.00945869 -0.0063438 0.0057583 -34.4512 33.041 1.7238
334 0.290118 -1.38064 -0.266943 1792.95 -2567.03 -6167.69 0.00906917 0.012359 0.0198723 -3.52961 -9.75708 -4.4631
335 -1.1949 -0.456181 -0.423768 1791.47 -2566.1 -6167.85 0.0289398 -0.00855593 -0.0382919 8.63619 1.17568 -2.13661
336 -1.31467 -2.0599 -0.960664 1791.35 -2567.71 -6168.39 0.0021217 -0.00782265 0.0118328 21.104 -9.65834 -5.76268
