ITEM: TIMESTEP
1560000
ITEM: NUMBER OF ATOMS
336
ITEM: BOX BOUNDS pp pp pp
-7.6212890821305352e+00 7.6212890821305352e+00
-7.6212890821305352e+00 7.6212890821305352e+00
-7.6212890821305352e+00 7.6212890821305352e+00
ITEM: ATOMS id x y z xu yu zu vx vy vz fx fy fz
1 -6.11957 -2.79277 6.6442 1792.5 -2456.85 -5617.87 0.00139104 0.000912605 0.000102852 -16.6485 4.5203 14.7794
2 -5.42749 -3.33316 5.98657 1793.2 -2457.39 -5618.52 0.00801522 -0.00889466 0.0151756 -4.7078 -1.30121 0.479292
3 -5.55522 -2.04625 7.21664 1793.07 -2456.1 -5617.29 0.0255275 -0.0222398 0.00638464 1.33715 -4.36848 -0.13673
4 -6.84759 -2.21392 6.06249 1791.78 -2456.27 -5618.45 0.00997443 0.0194678 0.00786622 7.47832 -1.21152 -9.44169
5 -6.9487 -3.72261 7.6063 1791.68 -2457.78 -5616.91 -0.000456646 -0.000953129 -0.000458289 -13.2914 27.6971 -16.4812
6 6.82184 -3.13581 -7.36949 1790.2 -2457.19 -5616.64 0.000162104 0.000557627 0.00656858 26.0335 -17.2304 6.66365
7 6.0891 -4.13661 -6.42546 1789.47 -2458.19 -5615.69 3.61228e-05 0.00392522 0.0104889 -36.1035 -2.98683 -3.41277
8 4.7997 -4.70101 -6.78997 1788.18 -2458.76 -5616.06 -0.00684058 -0.000404085 0.000788574 19.6474 19.8212 7.71493
9 4.05965 -5.42419 -5.85051 1787.44 -2459.48 -5615.12 0.00278344 -0.00366827 -0.00729547 34.8591 -20.038 51.3507
10 4.65602 -5.68765 -4.52177 1788.04 -2459.74 -5613.79 0.00278732 -0.00397459 0.00540852 -48.2564 -4.70436 -55.187
11 5.8971 -5.19008 -4.16609 1789.28 -2459.25 -5613.43 0.00405175 0.00230596 0.00111272 1.12802 10.9119 -16.3056
12 6.58905 -4.39804 -5.12568 1789.97 -2458.45 -5614.39 -0.00198588 -0.00791538 0.00456578 1.49949 14.0822 8.1769
13 -6.42571 -3.79188 -6.67442 1792.2 -2457.85 -5615.94 -0.00822856 -0.00058347 0.00377132 2.73002 -7.68084 -4.40043
14 -7.02858 -4.69744 7.10952 1791.6 -2458.75 -5617.4 0.00117582 0.00986254 -0.0219872 0.684385 -1.52386 8.72446
15 6.25803 -3.11638 6.93223 1789.64 -2457.17 -5617.58 -0.00383726 -0.00581176 0.00888353 5.90746 -16.2734 -1.79711
16 4.3103 -4.47721 7.50928 1787.69 -2458.53 -5617 0.00447094 0.00160667 -0.00454943 8.48195 1.07367 -2.62523
17 3.11123 -5.87514 -6.12725 1786.49 -2459.93 -5615.4 0.00658129 0.0029823 -0.0309747 1.71967 5.2144 2.60262
18 4.07198 -6.28668 -3.8293 1787.45 -2460.34 -5613.1 0.00128837 -0.00613093 0.00224747 4.64986 1.30144 4.09676
19 6.2323 -5.3434 -3.14452 1789.61 -2459.4 -5612.41 0.00305036 -0.00517303 0.00029473 7.80713 4.17878 -3.54915
20 7.43786 -3.79508 -4.81677 1790.82 -2457.85 -5614.09 -0.0131887 0.0169309 -0.0129867 4.06567 -10.3792 4.18729
21 6.90254 -1.64163 -6.8331 1790.28 -2455.7 -5616.1 0.00343579 -0.00430635 -0.00816526 -6.88099 -33.7968 38.8066
22 6.24261 -0.631987 7.4934 1789.62 -2454.69 -5617.02 -0.000817708 0.00439392 -0.00237397 -4.6521 -2.46849 -11.0219
23 7.1986 0.406179 7.03346 1790.58 -2453.65 -5617.48 -0.00332426 0.00442809 0.000866211 -3.76635 2.35782 -59.3818
24 -7.56472 1.35787 -7.32096 1791.06 -2452.7 -5616.59 0.00185257 -0.00465048 -0.000166733 -2.03498 19.5686 13.8643
25 -6.99556 2.56959 7.46242 1791.63 -2451.49 -5617.05 -0.000262627 -0.00187983 -0.00399634 -0.479425 -29.9553 11.9191
26 -6.63353 2.63623 6.13113 1791.99 -2451.42 -5618.38 6.46307e-05 0.00503808 -0.00120154 -30.6014 16.2876 -23.0112
27 -7.26096 1.77673 5.1633 1791.36 -2452.28 -5619.35 0.00193931 0.00217388 0.00106607 44.0426 4.73208 27.908
28 7.284 0.633648 5.6065 1790.67 -2453.42 -5618.9 0.00409009 -0.00422902 0.000789471 12.6121 11.9748 24.1836
29 6.34654 -1.636 -5.88742 1789.73 -2455.69 -5615.16 -0.0160517 -0.015769 -0.0195944 -1.71847 -1.0926 0.943544
30 -7.33641 -1.38331 -6.47326 1791.29 -2455.44 -5615.74 -0.0151308 0.0245174 0.0230125 -1.5878 3.42113 -12.8723
31 5.93531 -1.22417 6.62256 1789.32 -2455.28 -5617.89 -0.0165906 -0.027718 0.0249173 -10.96 20.4331 -5.56631
32 7.4321 1.22566 -6.2714 1790.81 -2452.83 -5615.54 0.00403409 -0.0188067 -0.00145702 4.45932 6.4119 2.3728
33 -6.78052 3.3861 -7.09714 1791.84 -2450.67 -5616.37 -0.0265062 -0.00458254 0.0074734 2.90845 -5.44641 0.661129
34 -6.12779 3.54866 5.8292 1792.5 -2450.51 -5618.68 0.0169115 0.000424483 0.0132118 3.91842 -5.74209 -8.423
35 -6.87529 1.86996 4.15235 1791.75 -2452.19 -5620.36 0.0126052 -0.00227742 0.00471038 -15.6216 -2.65312 -4.9179
36 6.88476 -0.059151 4.87159 1790.27 -2454.11 -5619.64 -0.0152773 0.00450674 0.00313376 -2.178 -1.0592 7.23226
37 5.01734 0.10926 -7.14324 1788.4 -2453.95 -5616.41 -0.00256218 0.00236269 0.00749791 8.33561 -7.54216 9.66007
38 3.63609 -0.537488 -7.44147 1787.02 -2454.59 -5616.71 0.00485588 -0.000113105 0.00415837 -37.3324 -9.87763 26.4148
39 3.08299 -0.221505 6.39549 1786.46 -2454.28 -5618.12 0.000493572 -0.00109687 0.000206452 28.3933 4.97853 -27.5101
40 3.03397 1.12794 5.9684 1786.42 -2452.93 -5618.54 0.000162563 -0.0146587 -0.00189331 -21.533 -2.5127 23.478
41 2.48237 1.51265 4.72836 1785.86 -2452.54 -5619.78 0.000457771 0.0064275 0.00303497 10.6065 -6.40738 2.61786
42 2.2876 0.538777 3.72952 1785.67 -2453.52 -5620.78 0.000408054 -0.00277827 -0.00179623 4.64301 42.563 30.6529
43 2.4273 -0.778763 4.12095 1785.81 -2454.83 -5620.39 -0.00811202 -0.00681208 -0.0040774 -6.14336 -45.6266 -13.0486
44 2.86357 -1.21172 5.40345 1786.25 -2455.27 -5619.11 0.00725449 -0.00158104 -0.0030653 -8.63621 23.0884 14.9423
45 5.17091 0.192987 -6.06025 1788.55 -2453.86 -5615.33 -0.0107433 0.000825841 0.00873991 -3.60027 -3.68532 1.49967
46 5.04456 1.16553 -7.43826 1788.43 -2452.89 -5616.71 -0.0027539 -5.62328e-05 -0.00103134 -7.19236 -2.39208 -5.54954
47 3.58502 -1.60684 -7.20199 1786.97 -2455.66 -5616.47 -0.0161154 -0.00403716 -0.0179338 19.3738 -3.9361 -16.7085
48 3.20193 1.86602 6.74717 1786.58 -2452.19 -5617.76 0.00145283 -0.023068 0.00579705 -0.752884 8.79397 -7.21552
49 2.23372 2.55731 4.56609 1785.62 -2451.5 -5619.95 -0.000759906 0.00973359 0.0261785 6.07028 -1.55152 -6.08772
50 2.03416 0.901022 2.73755 1785.42 -2453.15 -5621.77 -0.00500158 -0.0105948 -0.00319325 -7.89031 -16.7575 -2.46272
51 2.08468 -1.53574 3.42162 1785.47 -2455.59 -5621.09 0.00725374 -0.00648873 -0.0118675 7.49577 -3.60029 -4.23936
52 2.92804 -2.25864 5.68498 1786.31 -2456.31 -5618.83 0.0348525 0.00229357 0.00496212 -0.538228 1.5079 -7.60063
53 2.63431 -0.0820877 -6.32155 1786.02 -2454.14 -5615.59 -0.00795782 0.00729309 0.010255 -11.3519 8.00466 -4.66457
54 1.10809 -0.381151 -6.58299 1784.49 -2454.44 -5615.85 0.000426998 -0.00395494 0.00631249 -5.1967 20.2526 -24.3405
55 0.779972 -1.84458 -6.62082 1784.16 -2455.9 -5615.89 0.00663333 -0.00230882 -0.00149695 -3.53916 -20.3599 -12.8246
56 0.87236 -2.57247 -5.44126 1784.25 -2456.63 -5614.71 -0.00178648 -0.00012662 0.00474115 15.6808 2.64867 -4.04782
57 0.762561 -3.93187 -5.50856 1784.14 -2457.99 -5614.78 0.00358486 -0.0064679 0.0010391 -21.39 -47.3225 8.51694
58 0.463909 -4.65164 -6.69446 1783.85 -2458.71 -5615.96 0.000188493 -0.00321871 0.00112809 8.21117 14.5537 7.11797
59 0.366917 -3.92352 7.35391 1783.75 -2457.98 -5617.16 -0.00462065 -0.00233361 -0.000601408 -1.83015 11.2068 -7.14454
60 0.484499 -2.53821 7.38295 1783.87 -2456.59 -5617.13 0.00051098 -0.00154942 0.00138704 4.19996 37.0921 33.2162
61 2.7991 0.993117 -6.17925 1786.18 -2453.06 -5615.45 -0.00107493 0.00464917 0.0220732 -4.19957 0.74503 -0.45088
62 2.8255 -0.523489 -5.33561 1786.21 -2454.58 -5614.6 -0.00266551 -0.010955 0.000989142 13.7861 -2.24882 -5.67168
63 0.832737 -0.0867741 -7.60328 1784.21 -2454.14 -5616.87 0.00163456 -0.0205365 0.00118278 4.6853 16.0518 1.45195
64 1.20055 -2.13768 -4.50173 1784.58 -2456.19 -5613.77 -0.00733363 -0.0059281 0.00933022 -5.9643 6.3985 -0.880058
65 0.758591 -4.49113 -4.57761 1784.14 -2458.55 -5613.85 0.00942396 0.00776709 0.00955752 7.45044 -0.71603 1.90259
66 0.349702 -5.73075 -6.65043 1783.73 -2459.79 -5615.92 -0.000445208 -0.00283548 0.00838003 -0.795516 1.24666 -5.55144
67 0.209069 -4.33786 6.36251 1783.59 -2458.39 -5618.15 -0.00244227 -0.00442226 -3.98978e-05 -10.3267 -16.6984 8.46309
68 0.312701 -1.93929 6.49344 1783.69 -2455.99 -5618.02 -0.0071474 -0.022778 -0.0113285 4.91665 -7.65139 -3.50798
69 0.243378 0.469496 -5.59427 1783.63 -2453.59 -5614.86 0.00136733 0.00167823 0.00257082 -6.30049 20.4205 0.0534824
70 -1.01839 1.22994 -6.15266 1782.36 -2452.83 -5615.42 -0.000612825 -0.0053774 0.0080618 18.4998 -31.3976 4.01125
71 -2.00979 1.49847 -5.00366 1781.37 -2452.56 -5614.27 -0.00516661 -0.00475303 0.00529746 10.1633 6.98378 -15.9894
72 -1.74012 2.39889 -3.95614 1781.64 -2451.66 -5613.22 0.00439217 0.00361231 0.00336182 20.6554 1.52714 -10.0125
73 -2.71508 2.71171 -3.01686 1780.67 -2451.34 -5612.29 0.000923582 0.00239713 0.000617045 -7.69523 -2.41685 3.48702
74 -3.96499 2.11738 -3.15948 1779.42 -2451.94 -5612.43 -0.00030823 -0.00113988 -0.00308445 -13.1164 8.56868 9.48107
75 -4.23609 1.22941 -4.19871 1779.15 -2452.83 -5613.47 -0.00185634 0.00439091 0.0071374 -15.2489 1.17988 12.7142
76 -3.26269 0.917443 -5.08759 1780.12 -2453.14 -5614.36 -0.00445253 0.0116212 0.000146288 -9.26672 -7.85447 -19.9139
77 0.874412 1.288 -5.22642 1784.26 -2452.77 -5614.5 0.0128784 -0.0175112 0.0251945 -0.831531 -6.51068 12.1424
78 -0.0853378 -0.166656 -4.76317 1783.3 -2454.22 -5614.03 0.012751 -0.00379607 0.0028351 4.26962 4.54849 3.60854
79 -1.4427 0.418957 -6.75742 1781.94 -2453.64 -5616.03 0.00700391 -0.00262613 -0.000886823 -6.69593 11.9347 -12.7628
80 -0.770505 2.88749 -3.93202 1782.61 -2451.17 -5613.2 0.0104214 -0.00892682 0.0135186 0.0284244 1.78997 4.41216
81 -2.56012 3.42282 -2.21078 1780.82 -2450.63 -5611.48 -0.00729415 -0.016907 0.0192238 6.4604 0.132585 -3.72377
82 -4.76842 2.43851 -2.5031 1778.61 -2451.62 -5611.77 0.00507128 -0.0254829 0.0153146 5.1666 -0.496337 5.53366
83 -5.22166 0.806079 -4.36865 1778.16 -2453.25 -5613.64 0.00382209 -0.0133048 0.0184655 -2.29883 3.14675 6.10052
84 -3.5969 0.332912 -5.93969 1779.78 -2453.72 -5615.21 7.06381e-05 -0.000633092 0.00684325 12.7576 -5.81014 -2.8161
85 -0.64995 2.49656 -7.02433 1782.73 -2451.56 -5616.29 -0.00104279 5.04426e-05 0.00487787 -48.6246 22.1027 -11.5201
86 -1.94338 3.20021 7.48961 1781.44 -2450.85 -5617.02 0.00272684 -0.00289939 -0.000809926 47.9306 -33.0925 12.9419
87 -2.51923 2.21771 6.38795 1780.86 -2451.84 -5618.12 -0.00160604 -0.00356872 -0.00747818 8.21011 -14.443 25.0505
88 -1.66748 1.80559 5.33075 1781.71 -2452.25 -5619.18 0.00774185 -0.00806899 0.0013409 -16.9768 -5.35437 -11.059
89 -2.12984 0.805989 4.45382 1781.25 -2453.25 -5620.06 0.00548401 0.0068993 -0.00439409 8.14301 -5.01603 -11.8589
90 -3.34723 0.148405 4.62614 1780.03 -2453.91 -5619.89 0.000136021 -0.0011988 0.00218154 30.0439 -4.95011 -26.4131
91 -4.09349 0.439581 5.70697 1779.29 -2453.62 -5618.8 0.00636178 -0.0133642 -0.00319926 -38.9301 14.7205 45.1049
92 -3.70598 1.43523 6.61701 1779.68 -2452.62 -5617.89 -0.00106867 0.00533646 -0.00356845 26.3294 37.8674 0.184464
93 -0.294064 3.28398 -6.34846 1783.09 -2450.77 -5615.62 -0.0109265 0.0118682 -0.00364846 11.8307 -7.31246 0.183741
94 0.117126 2.2839 7.46337 1783.5 -2451.77 -5617.05 -0.011748 0.00439756 -0.00722655 1.12839 -1.70668 6.23117
95 -2.60972 3.45388 -6.91923 1780.77 -2450.6 -5616.19 -0.00517647 -0.00936455 -0.0052562 -13.1803 -10.1828 -10.8243
96 -0.69393 2.23801 5.11936 1782.69 -2451.82 -5619.39 0.00840514 -0.00235238 0.0164132 -2.62008 5.53767 8.82737
97 -1.53537 0.492949 3.60055 1781.85 -2453.56 -5620.91 0.0143104 -0.00485344 0.00610514 5.84082 5.03278 1.52153
98 -3.61089 -0.621388 3.90686 1779.77 -2454.68 -5620.6 -0.016667 0.00861277 -0.0020745 -8.38715 -1.43969 4.22505
99 -5.05499 -0.0257898 5.90298 1778.33 -2454.08 -5618.61 -0.00361082 0.0110206 0.00604232 1.27243 -8.96243 -7.85924
100 -4.31826 1.72105 7.46723 1779.06 -2452.33 -5617.04 -0.0103126 -0.0345415 0.00301304 -2.20032 -9.84835 -3.67256
101 -1.49165 4.54167 6.85944 1781.89 -2449.51 -5617.65 -0.00202884 -0.00354675 0.00310446 -2.09988 7.72388 -3.43033
102 -1.51585 5.79202 -7.41407 1781.87 -2448.26 -5616.68 0.00410179 0.00632093 -0.0026913 -22.0872 -0.219597 -8.99958
103 -0.3827 5.91462 -6.37725 1783 -2448.14 -5615.65 0.00496536 -0.00120573 -0.00280775 20.4391 17.3186 -18.2304
104 0.939153 6.22635 -6.7565 1784.32 -2447.83 -5616.03 0.00467641 -0.000318075 -0.00209727 18.8973 -27.0619 -32.7308
105 2.03322 6.39924 -5.86784 1785.41 -2447.66 -5615.14 0.00428658 0.000778325 -0.00960978 -20.0355 10.0051 6.67465
106 1.71717 6.51121 -4.51166 1785.1 -2447.54 -5613.78 0.0024637 0.00120358 -0.00814813 -4.56728 -0.427958 -2.52242
107 0.374826 6.37317 -4.15472 1783.76 -2447.68 -5613.42 -0.00166461 0.00950759 -0.00212022 -27.4142 -2.41267 26.7461
108 -0.652657 6.00753 -5.03626 1782.73 -2448.05 -5614.31 0.0016489 0.0100871 0.00157564 0.284611 -0.792012 9.17696
109 -2.22915 4.67806 6.05884 1781.15 -2449.38 -5618.45 0.0146089 -0.0227154 -0.0154669 4.90716 9.17241 -0.533746
110 -0.518526 4.49016 6.35561 1782.86 -2449.56 -5618.16 0.012189 0.0246988 0.0277009 -2.1717 -5.70962 4.1886
111 -2.3948 5.63585 -6.77647 1780.99 -2448.42 -5616.05 -0.00808523 0.00606439 -0.0196448 -4.5977 -0.22956 -6.23738
112 1.17786 6.08133 7.43658 1784.56 -2447.97 -5617.07 0.0103819 -0.0239162 0.00243563 1.16916 9.47203 -3.05407
113 3.04364 6.58821 -6.21825 1786.43 -2447.47 -5615.49 7.78335e-05 0.0129084 -0.0151401 -2.19321 -3.96681 -2.16554
114 2.45048 6.73599 -3.74278 1785.83 -2447.32 -5613.01 -0.0138282 0.00156871 0.00728247 3.34209 1.59363 -5.82109
115 0.0304935 6.55728 -3.14131 1783.41 -2447.5 -5612.41 0.015597 -0.00338376 0.00599175 12.4508 -2.3283 6.36253
116 -1.66139 5.8349 -4.6728 1781.72 -2448.22 -5613.94 0.00246366 0.0237521 0.0102043 0.59974 3.73832 2.44518
117 -1.78994 7.12745 6.98315 1781.59 -2446.93 -5617.53 -0.00520223 -0.00192381 0.00621255 37.8782 -41.9228 -4.73741
118 -3.07831 -7.44034 7.33667 1780.3 -2446.25 -5617.17 0.0037167 0.00407296 -0.00559681 -13.9649 34.3007 15.3941
119 -2.94515 -5.94961 7.07225 1780.44 -2444.76 -5617.44 0.00327534 0.00522785 0.000593133 4.60831 34.6347 -0.103999
120 -3.37299 -4.96827 -7.22601 1780.01 -2443.78 -5616.49 -0.00160991 0.00283754 0.000943853 5.42463 -0.922696 0.790749
121 -3.20705 -3.56498 -7.47377 1780.17 -2442.38 -5616.74 -0.00273666 -0.0100821 -0.000535163 3.77001 -47.8321 -3.72563
122 -2.68169 -3.20281 6.51557 1780.7 -2442.02 -5618 0.00161896 -0.00284757 -0.000381157 -20.8428 46.6658 11.5966
123 -2.29726 -4.10485 5.54354 1781.08 -2442.92 -5618.97 -0.00620572 -0.00423766 0.00257925 -4.50839 -41.0448 4.57433
124 -2.3636 -5.46717 5.87339 1781.02 -2444.28 -5618.64 -0.00266525 -0.00365373 0.000935686 -0.304259 -3.51052 -17.6105
125 -1.83815 6.9207 5.90686 1781.54 -2447.13 -5618.6 -0.0120603 -0.0129981 0.00868575 2.36412 -7.17311 0.732362
126 -0.88303 -7.5011 7.04605 1782.5 -2446.31 -5617.47 -0.00654009 0.00334853 -0.0259603 -9.10159 9.6168 7.09808
127 -3.18832 -7.58579 -6.82415 1780.19 -2446.4 -5616.09 -0.0136646 0.0200639 -0.00526199 -6.2056 3.4258 -0.388219
128 -3.80514 -5.31915 -6.29349 1779.58 -2444.13 -5615.56 -0.021544 0.0146217 -0.00391105 -0.158947 5.92985 0.59578
129 -3.5384 -2.83684 -6.73928 1779.84 -2441.65 -5616.01 -0.0140221 -0.0227081 0.00688057 1.67121 0.728951 -5.52695
130 -2.76561 -2.1439 6.28948 1780.62 -2440.96 -5618.22 -0.0105687 -0.0035473 0.000854589 10.6911 2.7361 -7.48009
131 -2.00867 -3.885 4.51991 1781.37 -2442.7 -5619.99 -0.0260017 -0.0048331 -0.0031197 2.21746 18.18 6.8082
132 -2.00883 -6.13693 5.09556 1781.37 -2444.95 -5619.42 0.00933267 0.0237603 -0.0172497 -4.63369 -6.37382 5.46261
133 -4.31926 7.23223 6.58657 1779.06 -2446.82 -5617.92 -0.00105384 0.00622094 0.000824934 49.7464 -9.90078 5.33599
134 -5.65739 -7.58989 7.21712 1777.72 -2446.4 -5617.29 0.00174896 0.00131228 -0.00377418 40.5365 -15.1787 4.10009
135 -5.76303 7.07404 -6.59445 1777.62 -2446.98 -5615.86 -0.00251742 0.000348086 -0.00370057 0.106873 48.934 6.34638
136 -5.96976 -7.26569 -5.49887 1777.41 -2446.08 -5614.77 0.00331003 0.00676502 0.000723375 -38.6123 -18.9735 37.7684
137 -6.48786 7.45133 -4.25913 1776.89 -2446.6 -5613.53 -0.00686036 -0.00290004 0.00931618 9.13417 29.8206 -52.0268
138 -6.49402 6.09801 -4.07313 1776.89 -2447.96 -5613.34 0.00927813 -0.000915549 0.00596177 -9.73603 -9.05386 26.9162
139 -5.99214 5.23224 -5.02535 1777.39 -2448.82 -5614.29 1.39487e-06 -0.00565586 -0.00772342 11.705 -1.41024 -15.8745
140 -5.64447 5.7282 -6.30949 1777.74 -2448.33 -5615.58 -0.00343352 -0.000882313 0.00379332 0.0620603 -33.0155 15.9123
141 -4.20591 7.46247 5.51999 1779.18 -2446.59 -5618.99 0.00488523 -0.00522412 -0.00101801 -10.8626 6.21825 0.777872
142 -4.08953 6.16158 6.65292 1779.29 -2447.89 -5617.86 -0.00840749 0.00437024 -0.00476076 -22.9159 -6.55394 -2.46945
143 -5.62369 -6.494 7.25418 1777.76 -2445.31 -5617.26 -0.0142607 0.00229155 -0.019693 -5.70357 -2.17586 1.96164
144 -6.09621 -6.18809 -5.5462 1777.29 -2445 -5614.81 0.00675618 0.00750814 0.0083501 7.79755 -1.73108 -24.0774
145 -7.04217 -7.12826 -3.60137 1776.34 -2445.94 -5612.87 0.00211251 0.0208817 -0.00708973 12.7106 -1.40087 6.24426
146 -6.8708 5.74229 -3.11869 1776.51 -2448.31 -5612.39 8.78253e-06 4.09789e-05 0.00262915 0.586657 -9.49634 -0.695775
147 -5.88048 4.18055 -4.77851 1777.5 -2449.87 -5614.05 0.00643854 -0.000443401 0.0115176 -2.57317 -0.228079 -4.46914
148 -5.29153 5.01046 -7.04416 1778.09 -2449.04 -5616.31 0.0121883 0.013896 -0.00306328 -2.29194 4.69408 -5.38048
149 -6.75453 7.23158 6.27189 1776.63 -2446.82 -5618.24 0.00394803 -0.0031053 -0.00265066 -41.7269 -11.2525 -14.5239
150 7.0938 7.51514 6.90514 1775.23 -2446.54 -5617.61 -0.000812307 -0.000599797 -0.00212796 -3.47615 30.6686 -16.3875
151 6.31143 6.34694 7.44362 1774.45 -2447.71 -5617.07 0.00773618 -0.00267554 -0.00634074 -11.669 -39.4862 7.51791
152 6.01523 6.32695 -6.39501 1774.15 -2447.73 -5615.66 -0.00189187 -0.00632224 -0.00889814 17.985 -4.54982 -27.986
153 5.4636 5.18332 -5.81141 1773.6 -2448.87 -5615.08 -0.00384923 0.00046182 0.00327915 -16.7384 0.376983 8.42222
154 5.08849 4.06843 -6.57801 1773.23 -2449.99 -5615.85 0.00407364 0.00145671 0.00313849 19.4696 10.0254 -5.02619
155 5.36354 4.09568 7.27747 1773.5 -2449.96 -5617.23 0.00364499 0.00284261 0.00307919 2.77561 -5.77617 -27.4083
156 5.92134 5.21956 6.60878 1774.06 -2448.84 -5617.9 -0.00188338 0.000884108 0.00051725 15.6836 42.0528 49.3331
157 -6.62688 -7.48854 5.31575 1776.75 -2446.3 -5619.2 -0.0114049 0.00464233 -0.000416748 -4.10633 6.57276 3.5704
158 -6.76425 6.18403 5.94626 1776.62 -2447.87 -5618.57 -0.00299425 0.000822814 -0.0151634 12.9975 -4.41511 11.2112
159 7.31922 -7.06045 -7.49614 1775.46 -2445.87 -5616.76 -0.0212103 0.0187174 -0.0120484 -9.34483 0.689161 -0.00373174
160 6.39349 7.13215 -5.77209 1774.53 -2446.92 -5615.04 -0.00717742 -0.00352791 -0.00936667 -8.28883 -0.226401 3.24619
161 5.25204 5.18461 -4.74619 1773.39 -2448.87 -5614.01 -0.0137881 -0.0102448 0.00129762 4.75622 -1.75316 1.44046
162 4.77396 3.16367 -6.0662 1772.91 -2450.89 -5615.33 -0.0165246 0.0126932 0.0102375 -5.37213 1.59456 -6.23431
163 5.24355 3.20729 6.66444 1773.38 -2450.85 -5617.85 -0.00539073 0.00956919 -0.00485299 -7.18846 -3.74995 4.64339
164 6.18551 5.26896 5.55653 1774.32 -2448.79 -5618.95 -0.025254 -0.000629778 -0.00535603 -5.0172 -13.7729 3.10248
165 6.16741 -6.87358 5.99804 1774.31 -2445.69 -5618.51 -0.00049179 -5.05127e-05 -0.00271571 -3.74947 1.74107 3.5903
166 6.63344 -5.91704 5.73097 1774.77 -2444.73 -5618.78 0.0112307 -0.00738491 -0.00842359 -0.823823 0.295708 1.95445
167 5.26238 -6.6869 6.58926 1773.4 -2445.5 -5617.92 0.00306795 -0.0259266 0.0109328 0.281728 6.84457 -4.44576
168 5.82047 -7.34513 5.07028 1773.96 -2446.16 -5619.44 0.00238479 -0.0108879 0.00177569 7.68894 -7.45971 1.56254
169 -5.68769 -6.39688 2.79986 1671 -2399.48 -5713.17 0.00107678 -0.00117087 -7.53401e-05 -9.10646 22.5436 -3.8452
170 -5.46879 -6.47588 1.7278 1671.21 -2399.56 -5714.24 0.0142504 0.00599922 0.00216488 20.5435 -3.40033 4.98039
171 -6.77522 -6.52018 2.72546 1669.91 -2399.6 -5713.24 -0.000255666 0.00412996 0.0114005 0.432738 -16.9988 19.7245
172 -5.13557 -7.08903 3.44759 1671.55 -2400.17 -5712.52 -0.0140038 -0.0129825 1.24711e-05 -9.13216 -12.9222 -10.4414
173 -5.44324 -4.985 3.377 1671.24 -2398.07 -5712.59 -0.00111367 0.0027274 -0.000708377 -2.63051 -10.4976 -44.4713
174 -5.98337 -3.96403 2.30303 1670.7 -2397.05 -5713.66 -0.002481 -0.00229573 -0.00534941 0.758728 10.645 8.88812
175 -7.50386 -4.01791 2.26438 1669.18 -2397.1 -5713.7 -0.00783657 -0.00141012 0.00294473 -30.3473 -10.3305 -30.3798
176 7.10268 -4.52663 1.07664 1668.54 -2397.61 -5714.89 -0.000976516 0.00191057 -0.00486067 -4.36542 -1.36213 26.8676
177 5.67333 -4.63374 1.00904 1667.11 -2397.72 -5714.96 0.00429855 -0.00499303 0.00568724 14.8514 7.83229 -8.16999
178 4.87178 -4.15494 2.06309 1666.31 -2397.24 -5713.9 -0.00254031 -0.00323014 -0.00288336 -7.11238 -11.7227 -5.06702
179 5.46743 -3.80185 3.24234 1666.91 -2396.89 -5712.72 -0.00312053 0.00245948 -0.00673689 43.8536 18.7702 27.4123
180 6.89722 -3.70633 3.35001 1668.34 -2396.79 -5712.62 -0.000556428 0.000323108 -0.00107329 -18.6244 12.6323 0.771937
181 -4.35624 -4.8566 3.45052 1672.33 -2397.94 -5712.52 -0.00382 0.0201996 0.00781067 -2.54075 1.59004 13.2604
182 -5.97673 -4.96274 4.33531 1670.71 -2398.05 -5711.63 -0.00287116 0.00466228 -0.00176564 8.12127 11.4033 0.584631
183 -5.64935 -4.22716 1.29176 1671.03 -2397.31 -5714.68 0.0126671 0.00668532 -0.00264429 6.53735 -7.56534 5.85188
184 -7.50581 -4.93399 0.294696 1669.18 -2398.02 -5715.67 -0.00454875 0.00611331 -0.00988609 -7.61509 3.67156 -5.41229
185 5.20706 -5.02929 0.11149 1666.65 -2398.11 -5715.86 -0.0144411 -0.00037839 0.0134306 0.215615 0.594519 1.03459
186 3.78593 -4.13858 2.05151 1665.23 -2397.22 -5713.92 -0.00206608 0.0386746 0.00939039 3.74626 -4.04263 -13.7277
187 4.88119 -3.48932 4.10147 1666.32 -2396.57 -5711.87 0.018176 -0.0116668 0.0129631 -4.25991 -1.30616 -5.00003
188 7.30361 -3.2446 4.24505 1668.74 -2396.33 -5711.72 -0.0065819 0.0117625 -0.00424329 4.01174 -7.02356 1.21957
189 -5.38235 -2.5422 2.50701 1671.3 -2395.63 -5713.46 0.00730781 0.00822908 -0.000960123 -7.15377 -0.879516 39.021
190 -5.83031 -1.43893 1.5458 1670.85 -2394.52 -5714.42 0.00553116 0.00150013 -0.000291467 -6.65952 9.33249 14.3781
191 -4.54445 -1.01923 0.841453 1672.14 -2394.1 -5715.13 0.00177946 -0.00600936 0.000292736 38.3814 10.8129 -40.5124
192 -4.02846 -1.83949 -0.222333 1672.66 -2394.92 -5716.19 -0.00709823 0.00665354 -0.00179824 -27.1028 17.2381 7.70525
193 -2.91944 -1.45074 -1.04208 1673.76 -2394.54 -5717.01 -0.00340133 -0.00268822 0.00299 -17.217 -16.0881 8.64134
194 -2.18087 -0.296563 -0.738025 1674.5 -2393.38 -5716.7 0.00998441 -0.00495602 0.00251174 -17.3255 -37.1334 -31.4368
195 -2.61047 0.408257 0.312735 1674.07 -2392.68 -5715.65 0.00167356 -0.00362162 -0.00341155 11.7828 45.8579 41.1785
196 -3.7297 0.119286 1.14115 1672.95 -2392.97 -5714.83 0.0035419 -0.00344973 -0.00911079 5.74071 -2.17234 -15.908
197 -5.65995 -2.21724 3.51736 1671.02 -2395.3 -5712.45 0.0220893 0.00294189 0.00475915 1.85304 -2.7241 4.13799
198 -4.28812 -2.61419 2.53812 1672.4 -2395.7 -5713.43 0.00694363 -0.00688696 -0.0249155 -2.41612 -2.29589 -0.0911495
199 -6.53921 -1.95118 0.883581 1670.14 -2395.04 -5715.08 0.0181212 -0.00701585 -0.00708535 8.19319 4.43875 -9.95388
200 -4.67481 -2.67209 -0.483998 1672.01 -2395.76 -5716.45 -0.00600355 -0.000879565 0.0194894 12.3765 -5.58331 -8.34668
201 -2.70618 -2.07549 -1.90444 1673.98 -2395.16 -5717.87 -0.0158555 0.00942312 -0.00883257 8.65419 5.95368 -0.820531
202 -1.38661 0.0904979 -1.36953 1675.3 -2392.99 -5717.34 -0.00539298 0.0180801 -0.00271576 1.0422 -8.09218 0.483218
203 -1.9736 1.26533 0.5109 1674.71 -2391.82 -5715.46 -0.025779 0.0232639 -0.0318496 -11.8976 5.49925 9.85845
204 -3.91257 0.85084 1.92271 1672.77 -2392.23 -5714.04 -0.00485177 -0.0256526 0.0095662 -9.95656 -10.0964 2.66554
205 -6.64155 -0.220203 2.2153 1670.04 -2393.3 -5713.75 -0.000639597 0.00278694 0.00124827 15.1735 -12.1653 -23.2745
206 7.29625 0.122215 1.39023 1668.74 -2392.96 -5714.58 -0.00166299 0.000974914 -0.00228406 -24.4808 -1.18599 -5.70269
207 7.41139 0.0354077 -0.147815 1668.85 -2393.05 -5716.11 0.00429342 -0.00550457 -0.00120622 -8.95965 -9.51574 10.5667
208 -7.37929 1.0937 -0.899637 1669.3 -2391.99 -5716.87 -0.00665134 0.00549746 -0.00382895 26.916 15.0917 -17.0454
209 -7.15908 0.958279 -2.26686 1669.52 -2392.13 -5718.23 0.00510986 0.00427555 -0.00475164 -4.25607 -27.6396 -23.8514
210 -7.56527 -0.220662 -3.00155 1669.12 -2393.31 -5718.97 -0.000140504 0.000777424 -0.00403328 -0.171449 46.8569 27.7269
211 6.97986 -1.20135 -2.28968 1668.42 -2394.29 -5718.26 -0.00346277 0.00376811 0.00574919 0.937433 14.4667 15.8538
212 6.84217 -1.05988 -0.843987 1668.28 -2394.14 -5716.81 -0.00402867 -0.0016803 -0.00871311 -3.07179 -18.7621 -37.4917
213 -6.82589 -0.405649 3.28071 1669.86 -2393.49 -5712.69 0.00999711 0.0143966 0.0051085 -8.51011 -3.87922 -4.74514
214 -6.01093 0.677268 2.23379 1670.67 -2392.41 -5713.73 -0.00562342 0.00636945 -0.00468296 -2.30419 1.30521 -2.23173
215 6.56243 -0.676895 1.55273 1668 -2393.76 -5714.41 -0.00774211 0.00395917 -0.0148813 6.46864 -3.52238 17.8992
216 -7.10953 2.06022 -0.484267 1669.57 -2391.02 -5716.45 -0.00892544 0.00690275 -0.0056751 5.92477 -5.62975 12.1225
217 -6.65685 1.77874 -2.77092 1670.03 -2391.31 -5718.74 -0.0110552 0.015542 -0.00236664 -13.0184 0.527821 -8.06471
218 -7.56905 -0.170349 -4.08641 1669.11 -2393.26 -5720.05 -0.0233344 0.0098159 -0.0035511 4.9602 -10.3143 3.04381
219 6.49227 -1.95045 -2.90658 1667.93 -2395.04 -5718.87 -0.0218507 0.0067542 0.0167724 -2.88626 -7.74112 16.4249
220 6.21327 -1.77416 -0.320772 1667.65 -2394.86 -5716.29 0.0198448 0.00879843 0.0340902 9.36559 0.13107 -0.830465
221 6.55254 1.39709 1.93595 1667.99 -2391.69 -5714.03 0.00213373 0.00462172 0.00208114 14.5084 5.64778 -9.23908
222 5.57565 2.15994 0.955669 1667.02 -2390.92 -5715.01 0.00344659 -0.00240059 0.0089616 7.46206 -28.8193 23.1044
223 4.67757 1.19199 0.136775 1666.12 -2391.89 -5715.83 -6.49184e-05 -0.000688252 0.00213018 10.9757 -13.8457 -2.42535
224 4.1018 0.0343354 0.722618 1665.54 -2393.05 -5715.24 0.0022679 0.00155931 0.000498752 -26.8686 0.637804 -24.3302
225 3.40918 -0.929199 -0.123558 1664.85 -2394.01 -5716.09 0.00330694 -0.003855 0.00415509 15.9934 29.7494 66.6158
226 3.16443 -0.616938 -1.42088 1664.61 -2393.7 -5717.39 -0.00470139 -0.00138943 0.0084772 -0.253349 13.822 -60.3676
227 3.7433 0.534518 -2.04161 1665.18 -2392.55 -5718.01 -0.00644748 -0.00730695 0.00128276 21.1017 -20.8576 21.5115
228 4.64421 1.28024 -1.26854 1666.09 -2391.8 -5717.24 -0.00784156 0.00439611 -0.00326616 -10.9846 22.5069 -6.99735
229 7.29623 2.17416 2.15173 1668.74 -2390.91 -5713.82 0.0129517 -0.0010219 -0.0150147 5.7637 -6.92815 5.25176
230 6.1288 1.11759 2.90847 1667.57 -2391.97 -5713.06 0.00713549 0.00893492 0.0054766 -10.189 6.53667 -4.15468
231 6.27145 2.71874 0.317647 1667.71 -2390.37 -5715.65 -0.00482211 -0.006286 -0.00334031 -13.079 2.5806 -7.69877
232 4.05483 -0.0143277 1.80654 1665.5 -2393.1 -5714.16 0.0108432 0.0075982 0.00111275 6.6384 -12.4132 -2.48045
233 2.93986 -1.79671 0.331006 1664.38 -2394.88 -5715.64 -0.0011739 -0.000381888 0.00610008 1.60876 -0.744815 -0.513422
234 2.61404 -1.31531 -2.04442 1664.06 -2394.4 -5718.01 -0.00455902 0.012808 -0.00754215 -3.13427 -0.52363 1.34079
235 3.76679 0.710405 -3.11304 1665.21 -2392.37 -5719.08 0.0171115 0.0217071 0.00649214 -12.607 -8.08872 3.6728
236 5.22808 2.03242 -1.79082 1666.67 -2391.05 -5717.76 -0.00255325 0.00903697 0.00942318 -0.00682454 4.34946 4.95088
237 4.74625 3.16319 1.77593 1666.19 -2389.92 -5714.19 1.74487e-05 0.00300187 -0.000571936 2.42893 18.1949 -22.6523
238 5.42784 4.58301 1.88419 1666.87 -2388.5 -5714.08 0.004542 -0.00108162 -0.0076728 -27.0017 -15.073 6.01981
239 5.67121 5.27902 0.482577 1667.11 -2387.81 -5715.48 0.00100916 -0.00331762 -0.00988965 32.1554 -0.427435 80.5091
240 6.92323 5.94006 0.42641 1668.36 -2387.14 -5715.54 0.000601302 0.0017027 -0.00430357 -1.3989 -11.6337 -14.4356
241 7.18306 6.72473 -0.66482 1668.62 -2386.36 -5716.63 0.00293543 -0.0111192 -0.0103238 -19.3945 11.5875 -49.1175
242 6.18209 6.84378 -1.68321 1667.62 -2386.24 -5717.65 -0.000618486 0.00451676 0.00109999 50.0523 35.135 9.96595
243 4.97074 6.25083 -1.60316 1666.41 -2386.83 -5717.57 0.0048785 -0.00303812 0.00112562 -27.8776 -31.6123 11.9149
244 4.72099 5.40098 -0.500958 1666.16 -2387.68 -5716.47 -0.000569882 0.00215609 0.000857218 -7.48729 -1.90674 -16.5143
245 4.46626 2.74922 2.75251 1665.91 -2390.34 -5713.21 0.0160288 0.0176058 0.0101743 -0.274515 3.41207 -2.67919
246 3.84333 3.32815 1.1751 1665.28 -2389.76 -5714.79 -0.0044938 -0.0162423 0.00104164 -7.16899 -5.63686 8.8205
247 6.4253 4.40438 2.30446 1667.87 -2388.68 -5713.66 0.00615047 -0.00124512 -0.0116281 -3.61796 -1.70126 3.43012
248 -7.48754 5.70722 1.08469 1669.2 -2387.38 -5714.88 -0.0057841 0.0237796 0.0114241 -8.76356 4.18765 8.67651
249 -7.09851 7.1865 -0.871397 1669.59 -2385.9 -5716.84 0.0112425 -0.0160711 0.0179202 1.37089 -2.47257 12.6537
250 6.39787 7.50762 -2.51521 1667.84 -2385.58 -5718.48 -0.00149525 0.00939387 0.00479026 -3.1646 -2.61446 -5.39103
251 4.26727 6.35097 -2.42447 1665.71 -2386.73 -5718.39 0.0076416 0.00231731 -0.000549401 -2.97662 -1.30141 1.82093
252 3.86283 4.73908 -0.430861 1665.3 -2388.35 -5716.4 0.00887888 -0.00975042 0.00439601 -9.52904 11.5576 -8.41804
253 4.63806 5.44997 3.00077 1666.08 -2387.63 -5712.97 0.00280492 -0.0121004 0.00541004 -4.29556 27.5989 -49.0626
254 3.24174 6.1048 2.55635 1664.68 -2386.98 -5713.41 -0.00871665 -0.00740527 -0.00762008 -37.224 -21.477 42.2933
255 2.89666 7.35204 3.46752 1664.34 -2385.73 -5712.5 3.98788e-05 0.00166643 0.00215765 3.36796 29.6385 -2.78768
256 2.91646 7.35454 4.8941 1664.36 -2385.73 -5711.07 0.00641568 0.00111471 0.00867374 1.15488 -37.2572 -41.898
257 2.6272 -6.74616 5.64345 1664.07 -2384.59 -5710.32 0.00333781 -0.00281888 0.00916638 5.71548 -10.0439 7.15909
258 2.31894 -5.55448 4.99717 1663.76 -2383.4 -5710.97 -0.00734614 -0.0042845 -0.00597821 -5.14944 -6.65075 -6.5955
259 2.2057 -5.52011 3.58802 1663.65 -2383.36 -5712.38 0.000246686 0.00153045 -0.00452993 -10.588 10.4391 44.1405
260 2.54726 -6.65267 2.85178 1663.99 -2384.49 -5713.12 0.00132627 -0.00274063 0.00100536 9.76325 -22.5056 -18.5397
261 4.55127 4.95452 3.97569 1665.99 -2388.13 -5711.99 -0.0170045 -0.0257284 -0.00330528 3.56156 0.336812 -6.38942
262 5.23544 6.36612 3.08618 1666.68 -2386.72 -5712.88 -0.0219719 0.00471194 -0.000800415 8.3732 -7.60651 14.2768
263 3.23929 6.49474 1.53096 1664.68 -2386.59 -5714.44 -0.00675956 -0.00265861 -0.00579298 12.4747 -11.2121 0.0346086
264 3.09533 6.36292 5.29926 1664.54 -2386.72 -5710.67 -0.00221823 -0.00258713 0.00344944 2.64239 8.16096 22.107
265 2.63115 -6.81025 6.72758 1664.07 -2384.65 -5709.24 -0.0091552 0.00915466 0.00988062 -0.479451 2.81109 0.155823
266 2.05136 -4.70274 5.61554 1663.49 -2382.54 -5710.35 -0.0143599 -0.0176163 0.00938097 7.2353 5.57452 -7.50448
267 1.7372 -4.61842 3.20473 1663.18 -2382.46 -5712.76 0.000448435 -0.00321576 -0.01571 10.2252 -3.54906 -19.1931
268 2.59361 -6.60932 1.76761 1664.03 -2384.45 -5714.2 0.0083368 0.00953619 0.00182914 -8.77085 5.51988 -1.21348
269 1.99902 5.04749 2.72813 1663.44 -2388.04 -5713.24 0.00442181 0.00310958 -0.00521447 36.4416 38.533 -3.13332
270 0.910787 5.28214 1.68897 1662.35 -2387.8 -5714.28 -0.00564853 0.00943549 0.00336661 -33.3105 -17.6598 2.96155
271 0.941649 4.15463 0.674243 1662.38 -2388.93 -5715.29 0.00371479 0.00387881 0.0120281 14.8078 43.3484 -40.914
272 0.786951 2.82507 1.03837 1662.23 -2390.26 -5714.93 -0.00456824 0.00164965 0.00182197 -12.4856 -13.1419 -20.3665
273 0.657917 1.86025 0.00667282 1662.1 -2391.22 -5715.96 -0.0013112 -0.00688476 0.00130353 2.17106 -11.4585 40.6425
274 0.795505 2.18023 -1.3271 1662.24 -2390.9 -5717.29 -0.0059953 -0.000978288 -0.00692658 21.9356 29.6753 -50.5316
275 1.2063 3.48854 -1.74045 1662.65 -2389.6 -5717.71 -0.00154 0.00191649 0.00269207 -18.8258 24.5736 61.5589
276 1.21347 4.51871 -0.703277 1662.65 -2388.57 -5716.67 -0.00123591 0.000501215 -9.08437e-05 0.701759 -51.1338 -26.0353
277 1.5204 5.21808 3.70039 1662.96 -2387.87 -5712.27 0.00921854 -0.0195717 0.001013 12.3401 -10.0505 5.18218
278 2.36146 4.01433 2.65956 1663.8 -2389.07 -5713.31 -0.0133772 -0.00290448 -0.00816653 0.571959 2.51533 10.25
279 1.07714 6.2428 1.18604 1662.52 -2386.84 -5714.78 -0.00739991 0.000300414 -0.0146067 -2.08398 -1.99606 1.45701
280 0.667784 2.55039 2.08231 1662.11 -2390.53 -5713.88 0.00495817 0.0157578 0.00659723 -2.97535 -1.37472 -2.71913
281 0.492261 0.832201 0.315106 1661.93 -2392.25 -5715.65 -0.0430343 -0.000712213 -0.000701226 -1.54259 0.522128 -6.51959
282 0.720905 1.44906 -2.12665 1662.16 -2391.64 -5718.09 0.00646184 0.00154193 -0.0103892 -2.91345 -9.86943 8.0662
283 1.3822 3.78935 -2.76906 1662.82 -2389.3 -5718.74 0.0123651 0.00236749 0.00523071 -0.979808 -11.3207 1.83902
284 1.4861 5.51122 -1.04977 1662.93 -2387.57 -5717.02 -0.0155959 0.00446993 0.000142096 -6.28423 3.00355 15.3722
285 -0.525504 5.3345 2.39066 1660.92 -2387.75 -5713.58 0.00636683 0.00448589 -0.00128437 -11.191 36.0881 -15.9961
286 -1.69551 6.01285 1.51926 1659.75 -2387.07 -5714.45 -0.00123385 0.00832813 0.00462509 -0.624507 22.2385 -14.7076
287 -3.09744 5.48318 1.8655 1658.34 -2387.6 -5714.1 0.00486867 -0.00256616 0.005137 24.2755 -11.4508 25.2352
288 -3.53963 5.59204 3.21716 1657.9 -2387.49 -5712.75 -0.000114014 -0.00513387 -0.00410998 15.1312 12.499 -34.0992
289 -4.75131 5.02799 3.56529 1656.69 -2388.06 -5712.4 0.00373972 0.00507363 0.00172196 -21.1427 -15.5731 24.9273
290 -5.39692 4.118 2.72364 1656.04 -2388.97 -5713.24 0.000678327 0.00754285 -0.00637138 -8.87345 8.54972 -12.6786
291 -4.91136 3.95515 1.44705 1656.53 -2389.13 -5714.52 0.00733365 -0.00420494 0.00513955 7.74498 -7.4897 -35.3761
292 -3.77648 4.6329 0.98054 1657.66 -2388.45 -5714.99 -0.00483569 -0.00212593 0.00419271 -4.87257 -4.68365 10.9277
293 -0.383032 6.03902 3.21941 1661.06 -2387.05 -5712.75 -0.0063391 0.0215044 -0.0135468 -6.03853 -8.3258 7.41366
294 -0.90118 4.39201 2.80785 1660.54 -2388.69 -5713.16 -0.00848596 0.01153 0.00128798 11.5603 -1.5941 -2.16417
295 -1.54556 5.75962 0.462447 1659.9 -2387.33 -5715.5 -0.00552216 -0.00679476 0.0076713 7.57821 -0.220027 0.935751
296 -2.93659 6.17966 3.9031 1658.5 -2386.91 -5712.06 0.0195315 -0.0200671 -0.00857479 -8.46722 -1.0817 5.29523
297 -5.19255 5.19978 4.54266 1656.25 -2387.88 -5711.42 0.0203928 -0.0032622 0.0106519 5.53203 2.6602 3.6381
298 -6.34907 3.63849 2.93088 1655.09 -2389.45 -5713.04 0.0202865 -0.0262085 0.00537536 4.14298 5.9365 14.0292
299 -5.41555 3.31022 0.733379 1656.03 -2389.77 -5715.23 0.0232752 0.0124389 -0.021218 -3.59861 -2.66158 6.01834
300 -3.39092 4.38747 -0.00463427 1658.05 -2388.7 -5715.97 -0.0135983 -0.00219021 0.000808474 1.12558 6.12837 0.109752
301 -1.71969 -7.61565 1.61998 1659.72 -2385.46 -5714.35 -0.00524979 0.0061254 0.00176595 8.17772 5.96482 26.5524
302 -1.7487 -6.74326 0.303295 1659.69 -2384.59 -5715.66 0.00395573 0.00376153 -0.00487359 -2.83556 -54.8016 -18.28
303 -1.08725 -5.38587 0.414212 1660.35 -2383.23 -5715.55 -0.00552427 7.11103e-05 0.00357784 6.92259 24.7648 13.6772
304 -1.79229 -4.31725 1.04517 1659.65 -2382.16 -5714.92 -0.010196 0.00685071 0.00337197 8.90135 -8.27283 -5.67069
305 -1.17704 -3.07575 1.21243 1660.26 -2380.92 -5714.75 -0.00527067 -0.00340052 -0.00187559 2.0057 -12.2888 24.3295
306 0.155139 -2.90783 0.836749 1661.6 -2380.75 -5715.13 -0.00916008 -0.0009342 0.00739262 5.36187 26.8711 0.10434
307 0.894862 -3.91737 0.261084 1662.34 -2381.76 -5715.71 -7.80692e-05 0.000128174 -0.000490115 -8.42393 -14.1998 -16.9191
308 0.275848 -5.16034 0.021762 1661.72 -2383 -5715.95 -0.00199398 0.00943879 0.00400562 -10.0163 -3.51952 -1.55691
309 -2.52117 -7.28412 2.29169 1658.92 -2385.13 -5713.68 0.00984654 0.0307103 0.00768972 -7.76175 -3.80362 -8.86608
310 -0.890432 -7.27566 2.25261 1660.55 -2385.12 -5713.71 -0.0132792 -0.010834 0.0214302 8.29632 -2.54592 -8.94882
311 -1.1597 -7.34139 -0.402947 1660.28 -2385.18 -5716.37 -0.0129035 -0.00523171 -0.0113346 7.68502 2.79401 0.212523
312 -2.78914 -4.45155 1.45469 1658.65 -2382.29 -5714.51 -0.00645334 -0.0050585 0.00848913 1.70303 -2.0698 0.337473
313 -1.63558 -2.37927 1.90821 1659.81 -2380.22 -5714.06 0.0134993 0.0190375 -0.0121071 -2.31004 8.66987 -12.6701
314 0.633762 -1.93904 0.945468 1662.07 -2379.78 -5715.02 0.00755958 -0.00615891 -0.0195237 -3.33328 0.87269 6.10977
315 1.88118 -3.69386 -0.134742 1663.32 -2381.54 -5716.1 -0.0108746 0.0163514 -0.0182559 0.870893 -6.64722 3.66956
316 0.84647 -5.91789 -0.507348 1662.29 -2383.76 -5716.47 -0.0204948 0.00795341 -0.0137629 -3.97799 -3.17781 3.61816
317 -3.1747 -6.74595 -0.342749 1658.27 -2384.59 -5716.31 0.000653974 0.00845533 -0.00715553 19.5439 5.37849 16.4021
318 -3.1659 -6.77247 -1.89574 1658.28 -2384.61 -5717.86 0.00635257 -0.00262246 -0.00809754 1.29816 31.0027 -4.34818
319 -3.92027 -5.52757 -2.41191 1657.52 -2383.37 -5718.38 -0.000630904 -0.00281092 -0.00418125 -37.6922 -9.73153 10.0854
320 -3.33106 -4.58943 -3.24343 1658.11 -2382.43 -5719.21 -0.000400028 0.00478861 -0.00397601 -3.05304 33.4786 -17.8437
321 -4.09391 -3.48703 -3.75416 1657.35 -2381.33 -5719.72 0.00054884 -0.00232261 0.00138954 33.7243 -8.31342 17.0695
322 -5.41895 -3.27668 -3.3689 1656.02 -2381.12 -5719.34 -0.000103269 -0.00510344 -0.000696118 -12.2226 -28.2214 -11.2245
323 -6.08337 -4.26727 -2.58308 1655.36 -2382.11 -5718.55 0.00217104 0.000207407 -0.00034339 27.3 37.4184 -16.8339
324 -5.28774 -5.30793 -2.02552 1656.15 -2383.15 -5717.99 -0.00197719 0.00204544 -0.00579761 0.334181 -15.2993 -5.4007
325 -3.75676 -7.60949 0.00217597 1657.68 -2385.45 -5715.96 -0.00705009 0.00726993 -0.0231548 -0.857396 5.87379 8.50968
326 -3.61738 -5.83356 0.0756404 1657.82 -2383.68 -5715.89 0.0138622 0.00709346 0.00993308 -17.0832 -4.48236 -10.4908
327 -2.14236 -6.69074 -2.28195 1659.3 -2384.53 -5718.25 0.00666915 0.0112994 -0.00423445 1.87111 0.536989 5.17132
328 -2.26699 -4.59722 -3.46057 1659.17 -2382.44 -5719.43 -0.000921777 0.0344942 -0.00780189 -2.21761 -9.37859 -0.659291
329 -3.54453 -2.73019 -4.30625 1657.9 -2380.57 -5720.27 0.0327311 0.00239923 0.0397153 -10.2996 -2.63391 -3.22965
330 -5.97969 -2.49987 -3.88037 1655.46 -2380.34 -5719.85 9.13219e-05 0.00611603 0.0162883 -0.506117 3.47158 9.33071
331 -7.14057 -4.06828 -2.43415 1654.3 -2381.91 -5718.4 0.00742198 0.0375946 -0.0118464 4.08806 -18.8019 14.962
332 -5.73022 -6.03165 -1.34736 1655.71 -2383.87 -5717.31 -0.014519 0.0169193 0.00180851 -6.37701 2.55003 -2.09443
333 -3.67643 7.12172 -2.41626 1657.76 -2385.96 -5718.38 -0.00521875 0.00252307 0.00142205 -4.38744 5.38371 3.74266
334 -3.40906 6.97004 -3.46934 1658.03 -2386.11 -5719.44 0.0150445 0.000296834 0.00695037 6.43847 -4.08313 3.72017
335 -4.76657 7.01317 -2.35897 1656.67 -2386.07 -5718.33 -0.00781857 0.0333642 0.0091826 1.90521 4.46167 8.26809
336 -3.2236 6.40048 -1.72472 1658.22 -2386.68 -5717.69 0.000981534 0.00626482 0.00123685 -1.06132 -15.3938 -16.013
