ITEM: TIMESTEP
5000000
ITEM: NUMBER OF ATOMS
336
ITEM: BOX BOUNDS pp pp pp
-7.7305453481074391e+00 7.7305453481074391e+00
-7.7305453481074391e+00 7.7305453481074391e+00
-7.7305453481074391e+00 7.7305453481074391e+00
ITEM: ATOMS id x y z xu yu zu vx vy vz fx fy fz
1 -6.1407 -6.53232 -7.32177 1818.27 -2495.77 -5697 0.000273558 0.00241004 0.00105573 -5.05698 9.0147 -9.59856
2 -5.36444 -6.32693 7.39187 1819.04 -2495.56 -5697.75 0.00635782 -0.00713426 0.00476223 6.62245 9.22095 9.32572
3 -7.05851 -6.2745 7.59657 1817.35 -2495.51 -5697.55 -0.00430875 -0.027468 -0.0052918 -3.02665 -7.04997 4.13709
4 -6.07646 -7.61886 -7.18496 1818.33 -2496.85 -5696.87 -0.0140359 0.0038548 0.0188679 -4.86599 2.70048 7.42741
5 -6.03272 -5.69863 -5.97767 1818.38 -2494.93 -5695.66 0.00492834 -0.000265657 0.00794694 23.9676 10.414 -10.3535
6 -7.02483 -4.43229 -5.85556 1817.38 -2493.67 -5695.54 -0.0004244 -0.00317377 -0.00263414 -30.5782 -40.1552 -0.985095
7 7.57034 -4.55153 -4.56725 1816.52 -2493.79 -5694.25 0.00563716 -0.00283297 0.00538017 38.5811 -5.64774 10.945
8 6.25133 -4.96292 -4.6465 1815.2 -2494.2 -5694.33 -0.000727402 0.00331593 0.00514814 -10.0544 1.19988 -5.96105
9 5.54369 -5.26455 -3.48687 1814.49 -2494.5 -5693.17 0.00152656 0.000726651 -0.00133476 -23.1793 8.77773 -24.7137
10 6.05709 -4.98215 -2.24299 1815 -2494.22 -5691.92 0.00437348 0.0020235 -0.00542822 16.088 -8.96161 30.6337
11 7.40333 -4.69681 -2.11931 1816.35 -2493.93 -5691.8 0.00731623 -0.00148773 0.00034053 11.2078 -0.258032 -4.08364
12 -7.2791 -4.56793 -3.27447 1817.13 -2493.8 -5692.96 -0.00386263 0.0021843 0.00387831 -1.73923 18.4048 -12.727
13 -5.00467 -5.32327 -5.90249 1819.4 -2494.56 -5695.58 0.00527979 -0.00558742 0.0298968 0.269391 3.20028 -5.03501
14 -6.01741 -6.40362 -5.13732 1818.39 -2495.64 -5694.82 0.0122553 -0.0224948 -0.0107642 -16.1386 7.07698 2.04611
15 7.70435 -4.61665 -6.65164 1816.65 -2493.85 -5696.33 0.0165347 0.00324213 -0.0196383 2.20161 8.38748 -5.29579
16 5.75112 -5.05071 -5.60644 1814.7 -2494.29 -5695.29 -0.00956758 -0.0174406 0.0116695 1.92767 -2.91058 -0.284168
17 4.5232 -5.60665 -3.63174 1813.47 -2494.84 -5693.31 0.00671452 -0.0098836 -0.0129376 -1.88979 -3.20614 11.5408
18 5.55509 -5.20715 -1.30662 1814.5 -2494.44 -5690.99 0.00781893 -0.0147263 -0.00759556 -14.6879 2.09261 -6.14492
19 -7.59666 -4.65185 -1.13708 1816.81 -2493.89 -5690.82 -0.0075752 0.0164429 0.00649293 -0.183771 1.91221 -1.32833
20 -6.22448 -4.33819 -3.15444 1818.18 -2493.57 -5692.84 -0.00885332 0.023079 0.00785632 0.122516 -2.83675 -4.64069
21 -6.42853 -3.02102 -6.11017 1817.98 -2492.26 -5695.79 0.00532752 -0.00325283 -0.00142735 21.8889 -7.6215 7.36517
22 -7.29377 -1.9854 -6.96639 1817.11 -2491.22 -5696.65 0.0057831 -0.0010166 0.00528286 -6.90863 -20.412 -9.39231
23 -6.43313 -1.24893 7.47589 1817.98 -2490.48 -5697.67 0.00605243 0.00301468 3.59325e-05 25.6986 18.3826 1.49594
24 -5.86555 0.00862593 -7.72168 1818.54 -2489.23 -5697.4 0.00256453 0.00118417 0.0039223 9.46933 19.1708 -20.1389
25 -5.12526 0.728759 6.71423 1819.28 -2488.51 -5698.43 0.00492896 0.00101978 0.00171944 -17.5134 -26.6462 36.8939
26 -4.91165 0.0821044 5.48159 1819.5 -2489.15 -5699.66 -0.00839711 0.000381615 0.00382011 6.88988 -17.8117 -5.64808
27 -5.32018 -1.26367 5.30842 1819.09 -2490.5 -5699.83 -0.00370958 0.00587493 0.00213701 14.1131 40.1646 -17.7335
28 -6.03257 -1.87073 6.2865 1818.38 -2491.11 -5698.86 0.00486424 -0.00598599 -0.00656007 -41.9073 -33.9705 11.1181
29 -6.11287 -2.69412 -5.11171 1818.3 -2491.93 -5694.79 -0.00840018 0.041051 -0.0118139 -9.3063 17.2456 -7.21722
30 -5.45334 -3.13767 -6.59885 1818.96 -2492.37 -5696.28 0.00871641 0.0030306 0.00382931 -1.61601 -1.92085 -5.57034
31 7.47904 -2.5115 -7.63938 1816.43 -2491.75 -5697.32 -0.000711896 0.0340695 -0.015651 -2.48396 -8.73214 12.8082
32 -6.02989 0.443839 -6.74036 1818.38 -2488.79 -5696.42 0.0209262 0.0106076 0.00275081 10.605 11.7732 -5.62583
33 -4.69403 1.69012 6.97736 1819.71 -2487.55 -5698.17 0.0138571 -0.00713626 0.0170348 -0.725813 0.240047 -10.7308
34 -4.3487 0.521721 4.66352 1820.06 -2488.71 -5700.48 -0.00961423 0.0162205 0.0115668 -0.518756 10.8429 6.34518
35 -5.17932 -1.75483 4.35012 1819.23 -2490.99 -5700.79 0.00553631 0.00919054 0.00180447 2.83719 -1.35015 1.41969
36 -6.48474 -2.82692 6.04021 1817.92 -2492.06 -5699.1 -0.0117898 -0.000927296 0.00429718 4.23138 -5.77225 2.19109
37 7.29435 -1.10099 -6.05266 1816.24 -2490.34 -5695.73 -0.002496 -0.00283925 -0.00553552 -12.1466 9.54192 14.4506
38 5.83634 -0.626299 -6.56332 1814.78 -2489.86 -5696.24 -0.00443697 -0.0040423 -0.00127508 -3.34239 -11.0331 15.1212
39 5.5827 0.877691 -6.26458 1814.53 -2488.36 -5695.95 0.00566946 -0.00746873 0.00189998 6.01094 -27.1154 -8.22276
40 5.43812 1.35668 -4.94949 1814.39 -2487.88 -5694.63 -0.00703808 -0.00663727 -0.00208183 0.455679 19.4322 0.996054
41 5.24506 2.72307 -4.74562 1814.19 -2486.51 -5694.43 0.000508905 0.00463873 -0.00658994 8.72158 -8.43047 18.9601
42 5.26918 3.64337 -5.78385 1814.22 -2485.59 -5695.47 -0.00617101 0.00046962 -0.00326329 -8.99149 -4.84843 -1.70754
43 5.4007 3.17606 -7.10597 1814.35 -2486.06 -5696.79 -0.00229386 0.00533492 0.00126901 5.29202 -15.1019 -1.54793
44 5.5765 1.76807 -7.34956 1814.52 -2487.47 -5697.03 -0.00560787 -0.000500153 0.00340165 2.26515 24.1821 9.90052
45 7.14759 -1.64673 -5.11242 1816.1 -2490.88 -5694.79 0.00953457 0.00731233 0.00223347 -0.781992 -1.2546 -0.732536
46 -7.54158 -0.276027 -5.68929 1816.87 -2489.51 -5695.37 -0.0138488 0.00591072 -0.00600083 -12.2152 8.3973 1.81502
47 5.70357 -0.840745 -7.63094 1814.65 -2490.08 -5697.31 0.0047925 0.0261242 -0.00840969 11.2411 6.52638 0.717311
48 5.56166 0.781215 -4.0368 1814.51 -2488.45 -5693.72 -0.00663286 0.00266814 0.00377389 -2.54201 -15.7906 -10.9191
49 5.21556 3.04594 -3.70914 1814.16 -2486.19 -5693.39 -0.020065 -0.0112791 -0.00220598 -2.17953 7.67172 -2.72819
50 5.17303 4.69368 -5.52498 1814.12 -2484.54 -5695.21 0.00135963 -0.00271329 0.0125233 0.432042 1.08288 -8.71532
51 5.46169 3.90739 7.55459 1814.41 -2485.33 -5697.59 0.026945 -0.00222636 -0.003417 -3.63397 -7.19908 -3.04206
52 5.83863 1.37577 7.13337 1814.79 -2487.86 -5698.01 -0.0218235 -0.0174723 0.00587326 -6.86053 7.652 -1.93298
53 4.73511 -1.5447 -5.88771 1813.68 -2490.78 -5695.57 0.00344143 0.00408618 0.00356424 35.248 -3.11939 28.865
54 3.34628 -1.63159 -6.54173 1812.29 -2490.87 -5696.22 -0.00226894 -0.00721477 -0.00212345 -59.2731 1.67011 -21.5426
55 2.7144 -3.05303 -6.47892 1811.66 -2492.29 -5696.16 0.00108841 0.00313578 -0.00106135 27.9175 32.2889 27.2956
56 2.57389 -3.60018 -5.179 1811.52 -2492.84 -5694.86 0.0081182 0.000475462 0.0067468 22.477 13.9626 -16.1952
57 2.41044 -4.94834 -5.02534 1811.36 -2494.18 -5694.71 0.000162472 0.00311903 0.00671912 -14.8866 -11.3717 9.70432
58 2.15086 -5.74683 -6.14889 1811.1 -2494.98 -5695.83 -0.00325005 -0.000105914 -0.0017199 14.0026 -16.5059 28.2842
59 2.16626 -5.18603 -7.38016 1811.11 -2494.42 -5697.06 -0.0083776 -0.00421193 -0.0046799 0.177494 4.93082 -36.17
60 2.50203 -3.84641 -7.59739 1811.45 -2493.08 -5697.28 -0.00367489 0.00412917 -0.003554 -23.9946 -32.2462 -7.70467
61 4.61152 -1.34992 -4.81524 1813.56 -2490.59 -5694.5 -0.00312424 0.0405287 -0.00393347 -0.949901 14.0824 -3.86367
62 5.25142 -2.50526 -5.76867 1814.2 -2491.74 -5695.45 -0.0171165 -0.00265825 0.0383556 -18.683 -9.64221 -14.0916
63 3.44844 -1.36883 -7.6019 1812.4 -2490.6 -5697.28 -0.0031752 0.0156434 0.00346623 2.09976 0.873162 0.320083
64 2.84549 -3.01525 -4.30522 1811.79 -2492.25 -5693.99 0.0127352 0.00256592 0.00390987 -2.95013 1.06224 0.122643
65 2.45761 -5.3187 -4.00553 1811.41 -2494.55 -5693.69 -0.0297728 0.0106778 0.0108379 -5.55477 -12.3462 -5.43367
66 2.12305 -6.83141 -6.10073 1811.07 -2496.07 -5695.78 -0.0310506 0.00155615 0.0176188 -8.89702 1.78973 10.2004
67 1.99245 -5.83508 7.22774 1810.94 -2495.07 -5697.91 -0.00940698 -0.00552878 -0.00345963 -2.71637 2.27265 -3.88088
68 2.42678 -3.55137 6.82125 1811.37 -2492.79 -5698.32 -0.00143793 -0.00477197 -0.00626767 14.1137 22.2179 5.54566
69 2.25407 -0.623053 -5.90789 1811.2 -2489.86 -5695.59 -0.00369994 -0.000501469 0.000572904 30.9393 -1.90662 -2.00557
70 1.09585 -0.173672 -6.87961 1810.04 -2489.41 -5696.56 4.5987e-05 -0.00475702 -0.00595304 30.6908 -45.2068 -10.8714
71 -0.245468 -0.175677 -6.22365 1808.7 -2489.41 -5695.91 -0.00469777 -0.0023764 -0.00349022 -34.1497 8.23203 4.26027
72 -0.504641 0.713555 -5.17701 1808.44 -2488.52 -5694.86 0.00325953 -0.00191512 -0.000700284 14.7839 -2.70378 -23.0888
73 -1.80105 0.883999 -4.74573 1807.15 -2488.35 -5694.43 -0.0022409 0.00201095 -0.00494165 -35.1218 11.0886 12.3022
74 -2.88664 0.126908 -5.27774 1806.06 -2489.11 -5694.96 -0.00171951 -0.00113027 -0.000896752 18.3205 -6.4426 11.1126
75 -2.60051 -0.827285 -6.24583 1806.35 -2490.06 -5695.93 -0.00456962 -0.000756828 -0.00469835 -23.0136 -1.73113 -9.10793
76 -1.33434 -0.940434 -6.75061 1807.61 -2490.18 -5696.43 0.000593771 0.000122661 -0.00228826 52.8245 6.36826 -9.8233
77 2.82396 0.250269 -5.56735 1811.77 -2488.99 -5695.25 -0.0126263 0.0115703 -0.0155628 -5.91729 4.50492 -1.34654
78 1.85444 -1.04938 -4.97947 1810.8 -2490.28 -5694.66 0.00944028 0.0163993 0.0140065 -3.98234 1.31225 -3.98724
79 0.997056 -0.992426 -7.60301 1809.94 -2490.23 -5697.28 0.00756388 0.0045642 -0.0174892 8.48206 -1.10032 -3.84098
80 0.291034 1.39234 -4.8845 1809.24 -2487.84 -5694.57 0.0121218 -0.0191725 0.0150794 -0.817862 -3.94804 7.11462
81 -2.0005 1.68505 -4.04007 1806.95 -2487.55 -5693.72 -0.0300155 -0.00398434 -0.00600182 -2.60734 -3.78804 3.72187
82 -3.89998 0.16722 -4.88925 1805.05 -2489.07 -5694.57 0.0041272 -0.0020705 0.0144287 2.76116 9.36465 1.39855
83 -3.3888 -1.41782 -6.7033 1805.56 -2490.65 -5696.38 0.00678541 0.00346558 -0.0297604 -2.92024 0.416063 4.29966
84 -1.1186 -1.58357 -7.59869 1807.83 -2490.82 -5697.28 0.0261206 0.0175272 -0.0090938 -9.52335 -3.70504 1.70918
85 1.48872 1.05723 -7.70929 1810.44 -2488.18 -5697.39 -0.0034524 0.0080698 -0.00582673 -26.1142 40.3798 -19.6399
86 0.436133 1.45951 6.58556 1809.38 -2487.78 -5698.56 0.00137411 0.00460227 0.00163054 5.78024 -29.3056 20.3441
87 0.0510169 0.286255 5.62011 1809 -2488.95 -5699.52 -0.00115363 0.00243073 0.00447585 9.67149 41.6884 39.9346
88 1.08037 -0.517973 5.12587 1810.03 -2489.75 -5700.02 -0.00121972 -0.00406295 0.00671108 -30.7876 37.143 33.581
89 0.666993 -1.40799 4.23438 1809.61 -2490.64 -5700.91 -0.00345495 0.0034687 0.00119223 28.3881 -67.7731 -46.7284
90 -0.653391 -1.71624 3.89008 1808.29 -2490.95 -5701.25 0.00170961 0.00276596 0.00375356 2.73433 18.3457 -3.35082
91 -1.64216 -0.89465 4.41046 1807.31 -2490.13 -5700.73 0.00316566 0.00850362 -0.00162208 -17.554 -8.31758 -19.8825
92 -1.30966 0.11641 5.26259 1807.64 -2489.12 -5699.88 0.00597953 0.00247919 0.00878096 16.1739 13.756 7.62055
93 1.48071 1.88802 -6.99295 1810.43 -2487.35 -5696.67 0.00412901 0.00833258 -0.00606588 1.62783 2.22803 -0.454104
94 2.51084 1.08856 7.35469 1811.46 -2488.15 -5697.79 -0.00165844 -0.0327774 -0.00403205 -3.41299 -14.2344 4.06618
95 -0.467592 1.80275 7.1041 1808.48 -2487.43 -5698.04 0.00409606 0.0235711 -0.00606568 -4.62015 -19.0095 1.7256
96 2.10476 -0.402754 5.46756 1811.05 -2489.64 -5699.67 0.0046119 -0.00637475 -0.0101689 1.50399 -1.84395 -10.1107
97 1.4569 -1.96981 3.74467 1810.4 -2491.21 -5701.4 -0.0123829 -0.0183305 0.0118583 0.0508966 -8.1183 -1.60274
98 -0.866397 -2.39736 3.07147 1808.08 -2491.63 -5702.07 0.0210661 -0.00344592 0.0038963 -0.974882 -3.01898 5.04662
99 -2.64521 -0.903753 3.99426 1806.3 -2490.14 -5701.15 0.00872656 0.021095 -0.0153689 -2.20501 -9.86921 2.50921
100 -2.07778 0.827526 5.55195 1806.87 -2488.41 -5699.59 -0.00401836 -0.00384375 -0.0021895 3.58842 0.385702 6.27422
101 0.868609 2.71017 5.83883 1809.82 -2486.53 -5699.3 0.0010251 -0.00348512 -0.00555743 7.03909 8.03408 -41.185
102 0.308339 3.9541 6.47239 1809.26 -2485.28 -5698.67 -0.00700039 0.00489779 -8.64396e-05 35.7722 42.4799 27.0894
103 1.38938 5.11669 6.44462 1810.34 -2484.12 -5698.7 -0.00408065 0.00467095 0.00383893 -12.6263 19.0954 -46.1893
104 1.56458 5.95139 5.28247 1810.51 -2483.28 -5699.86 0.000834553 0.00299532 -0.00240769 -1.38746 -30.3422 30.0952
105 2.42814 7.04728 5.37347 1811.38 -2482.19 -5699.77 -0.000389123 -0.00068581 -0.00087503 25.0951 30.3042 8.1432
106 3.13918 7.37675 6.57229 1812.09 -2481.86 -5698.57 0.00500321 0.000930834 -0.00620207 -12.8427 -22.2438 -0.249006
107 2.98686 6.53174 7.69346 1811.93 -2482.7 -5697.45 0.000572431 0.00150479 -0.00217891 6.97038 4.3344 -12.9148
108 2.18037 5.40407 7.5584 1811.13 -2483.83 -5697.58 0.00232881 0.000174515 0.00685761 -32.0667 -32.4589 13.651
109 0.523367 2.7149 4.79757 1809.47 -2486.52 -5700.34 -0.031126 -0.00532286 0.00516693 -7.25251 -9.09894 1.78275
110 1.94691 2.80933 5.66314 1810.89 -2486.43 -5699.48 0.00191868 -0.0184748 -0.0083905 3.58031 -7.8594 13.4897
111 0.226374 3.74125 7.54542 1809.17 -2485.49 -5697.6 -0.0193926 0.0108596 0.000119163 -8.26805 0.238309 0.31523
112 1.10012 5.6511 4.34785 1810.05 -2483.58 -5700.79 0.0142706 0.00163909 -0.00864488 -1.45596 8.35858 0.270853
113 2.60122 7.71908 4.53792 1811.55 -2481.52 -5700.6 -0.00762195 -0.00796672 -0.00817233 -5.91628 -6.40558 -7.69079
114 3.80968 -7.23224 6.63372 1812.76 -2481.01 -5698.51 0.00838886 -0.00154114 -0.00900692 -2.38443 -0.606215 -4.26113
115 3.51407 6.71728 -6.83648 1812.46 -2482.52 -5696.52 0.00543114 -0.014462 -0.00175383 0.944332 1.20265 -2.17475
116 1.98993 4.68066 -7.1154 1810.94 -2484.55 -5696.8 -0.00932222 0.00773674 0.0109928 17.593 11.6373 18.4859
117 -1.09712 4.37909 5.96263 1807.85 -2484.86 -5699.18 -0.00815721 0.00377064 -0.00335636 -1.04584 14.7513 16.5305
118 -1.84861 5.32072 6.97731 1807.1 -2483.91 -5698.17 -0.000667094 -0.00328889 0.006142 -34.2953 0.309455 1.03942
119 -2.88651 6.27596 6.31103 1806.06 -2482.96 -5698.83 -0.0034757 -0.000767206 0.00226046 21.5597 10.7229 -40.1292
120 -2.40612 7.50216 5.8623 1806.54 -2481.73 -5699.28 0.00445746 -0.00662883 0.00104714 7.25309 30.9036 -2.43174
121 -3.1672 -7.00814 5.0919 1805.78 -2480.78 -5700.05 0.000882684 0.001014 -0.00154454 36.4774 -29.3741 20.1276
122 -4.46404 -7.33868 4.7175 1804.48 -2481.11 -5700.42 -0.00205518 -0.00219098 0.00600905 5.7314 10.888 3.62871
123 -4.92897 6.86459 5.06524 1804.02 -2482.37 -5700.08 -0.00303806 -0.00389502 0.003642 -15.9035 0.4255 3.40147
124 -4.13297 5.93871 5.77633 1804.81 -2483.3 -5699.37 0.00511883 0.00655411 0.00211873 -12.7435 -22.4169 7.93299
125 -1.73404 3.4954 5.83286 1807.21 -2485.74 -5699.31 -0.000578366 0.00339555 -0.0369559 5.61224 2.89888 -15.6198
126 -0.905447 4.9603 5.05221 1808.04 -2484.28 -5700.09 0.00471629 0.0129527 0.0051396 -15.008 -9.73436 -7.85817
127 -1.08756 5.97333 7.42265 1807.86 -2483.26 -5697.72 0.00563524 -0.00095415 -0.00801685 -1.02202 -7.92795 7.21714
128 -1.38806 -7.70669 6.14398 1807.56 -2481.48 -5699 0.00294304 -0.00439279 0.00449521 0.770932 5.88011 -3.90285
129 -2.63151 -6.1115 4.79445 1806.32 -2479.89 -5700.35 0.0013295 0.00366328 0.00725237 -15.3004 6.56021 -3.33625
130 -5.10695 -6.62168 4.21551 1803.84 -2480.4 -5700.93 -0.00520334 -0.01238 -0.00447574 1.81858 -1.01406 -3.08724
131 -5.97227 6.66767 4.83684 1802.98 -2482.57 -5700.31 -0.00348188 0.00317336 -0.000459144 1.66641 -11.8879 -2.36905
132 -4.51532 4.93524 5.93844 1804.43 -2484.3 -5699.2 -0.0107146 0.0095064 -0.0169931 -2.77977 0.589528 2.64076
133 -2.62135 4.49133 -7.38009 1806.33 -2484.74 -5697.06 0.00755154 -0.00446124 -0.00525165 45.7846 -12.5815 -31.1104
134 -3.40244 5.3616 -6.38261 1805.55 -2483.87 -5696.06 -0.00632929 0.00402133 0.00138356 -14.4574 -9.62968 2.47249
135 -2.50595 6.46125 -5.87037 1806.44 -2482.77 -5695.55 -0.00142307 -0.000749067 0.00406643 12.1409 5.39852 2.26784
136 -2.65324 -7.67904 -6.34101 1806.29 -2481.45 -5696.02 -0.00171349 -0.000144299 0.00484079 14.6733 12.5977 27.7492
137 -1.83989 -6.67429 -5.7355 1807.11 -2480.45 -5695.42 -0.000919531 0.0058673 -0.00117453 -16.2872 6.8861 -12.9619
138 -0.907591 -6.96184 -4.74906 1808.04 -2480.74 -5694.43 0.00394885 -0.00203727 0.000856136 11.5077 -30.9651 15.3628
139 -0.699895 7.13949 -4.35728 1808.25 -2482.1 -5694.04 0.000387003 -0.00496023 0.00291815 2.36725 43.7312 -8.16295
140 -1.45007 6.14836 -4.96697 1807.5 -2483.09 -5694.65 0.00262444 0.00686804 -0.000455076 -24.5094 -9.40647 13.1528
141 -3.18912 3.72625 7.5372 1805.76 -2485.51 -5697.61 -0.0230898 0.0139419 0.0011563 -13.9748 5.80767 12.2872
142 -1.81472 3.91485 -6.91056 1807.13 -2485.32 -5696.59 0.016827 0.00648351 -0.00770814 -6.63924 0.081483 15.6098
143 -4.23573 5.7565 -6.97684 1804.71 -2483.48 -5696.66 -0.0260988 -0.0241415 0.0103218 1.18919 8.30492 8.04322
144 -3.45027 -7.3921 -7.02058 1805.5 -2481.17 -5696.7 -0.00133792 -0.00489115 0.00241621 2.46522 -3.33667 -0.869042
145 -1.99853 -5.62239 -5.954 1806.95 -2479.4 -5695.64 -0.00849917 0.00791665 0.0141344 -4.33398 -2.13954 -8.72132
146 -0.377402 -6.1643 -4.23697 1808.57 -2479.94 -5693.92 -0.025722 0.00580696 0.0193583 -0.873198 -1.96727 -3.83604
147 -0.0144769 6.93041 -3.54125 1808.93 -2482.31 -5693.22 0.0118612 0.0018617 -0.00496391 -1.40568 -5.51127 -2.4096
148 -1.42301 5.17161 -4.49302 1807.52 -2484.06 -5694.17 -0.0123185 0.00851254 0.00383152 3.83993 -4.91099 -9.0006
149 -4.04449 4.53348 -5.21689 1804.9 -2484.7 -5694.9 0.00552481 -0.0109289 0.00263201 -41.4641 -32.1314 -10.5598
150 -5.47578 3.87738 -5.66226 1803.47 -2485.36 -5695.34 0.00330016 0.00351131 -0.00386802 3.95795 35.5609 22.4212
151 -6.65727 4.93521 -5.75678 1802.29 -2484.3 -5695.44 -0.00351716 0.00108299 0.00130217 31.5509 -21.0198 -25.0515
152 -7.43346 5.02649 -6.93905 1801.51 -2484.21 -5696.62 0.00937664 -0.00386408 0.00506352 24.7217 -37.8157 -4.54056
153 7.06639 5.96477 -7.12365 1800.55 -2483.27 -5696.81 0.000412216 0.00822101 -0.00531496 -27.0355 41.5008 0.829866
154 6.90481 6.98502 -6.17193 1800.39 -2482.25 -5695.85 0.00383805 0.00395636 0.00292587 -7.66865 -13.209 -11.0351
155 7.62235 6.8815 -5.01567 1801.11 -2482.35 -5694.7 0.000590042 0.00152217 -0.00245894 2.46554 12.6002 30.1881
156 -6.87039 5.89317 -4.79365 1802.08 -2483.34 -5694.48 0.00200133 0.00378227 0.0013324 -16.5577 25.6638 20.6455
157 -3.40054 3.69188 -4.93324 1805.55 -2485.54 -5694.61 -0.0061807 -0.0102525 0.0313264 4.53498 4.9809 -4.50907
158 -4.19509 5.07218 -4.2732 1804.75 -2484.16 -5693.95 -0.00475285 -0.004822 -0.00250841 4.60457 9.91052 -7.25299
159 -5.33753 3.48555 -6.67754 1803.61 -2485.75 -5696.36 0.0127949 0.00283115 -0.00230394 -0.981962 -10.3187 7.07751
160 -7.31037 4.30305 7.72148 1801.64 -2484.93 -5697.42 -0.00769636 -0.00269953 0.00138037 4.90679 -4.53876 2.21099
161 6.4055 5.93149 7.47632 1799.89 -2483.3 -5697.67 0.00571161 0.0120868 -0.00950923 4.67425 2.75261 -5.05339
162 6.17756 -7.67313 -6.24807 1799.66 -2481.45 -5695.93 0.000986014 0.00123101 0.00160797 -3.8639 -4.82771 -8.73827
163 7.36709 7.58175 -4.22579 1800.85 -2481.65 -5693.91 -0.0217598 0.0052195 -0.0129254 7.82849 1.77738 2.45251
164 -6.37296 5.94572 -3.82969 1802.57 -2483.29 -5693.51 0.0143146 0.00687671 -0.00522499 9.53667 -12.5945 -3.65025
165 -5.87773 2.76193 -4.62851 1803.07 -2486.47 -5694.31 0.000963016 0.000620305 -0.00314692 3.64358 -14.2666 -12.8812
166 -5.07301 2.0333 -4.47059 1803.87 -2487.2 -5694.15 -0.0158987 -0.0244473 -0.0325259 2.9889 7.91442 0.141565
167 -6.69 2.13599 -5.01818 1802.26 -2487.1 -5694.7 0.0212404 -0.0208192 -0.0111131 -4.42551 7.44648 0.696884
168 -6.16005 3.15757 -3.64505 1802.79 -2486.08 -5693.33 0.00358597 0.00634693 -0.00471053 -1.01706 2.85954 -3.19729
169 2.60806 -4.94086 -0.558477 1687.87 -2432.33 -5798.47 -0.00706258 0.00767495 -0.00581119 -12.9173 17.1751 -3.68125
170 3.0314 -5.94628 -0.673947 1688.29 -2433.34 -5798.58 -0.0191535 0.000749725 0.0100971 -0.411202 3.17909 -3.63771
171 3.05522 -4.21357 -1.24733 1688.31 -2431.6 -5799.16 0.0179552 0.00166699 0.00412563 2.45747 -7.92686 -5.22323
172 1.52787 -4.9463 -0.749702 1686.79 -2432.34 -5798.66 -0.004436 -0.0215259 -0.0193395 2.92609 -7.72024 -9.47109
173 2.74231 -4.4435 0.865035 1688 -2431.83 -5797.04 0.00277182 -0.0108611 -0.00426067 -14.529 -21.1071 16.3738
174 3.52801 -3.1217 1.02985 1688.79 -2430.51 -5796.88 0.00157519 0.0104291 0.000673974 -5.85703 13.9475 -14.9633
175 2.84488 -1.91696 0.272045 1688.1 -2429.31 -5797.64 -0.00232892 0.00471304 -0.00053167 4.90064 -21.0843 38.7642
176 3.54841 -1.31053 -0.792783 1688.81 -2428.7 -5798.7 -0.00146122 0.00263549 0.00826858 -29.6776 13.5097 -26.0028
177 2.79977 -0.497678 -1.67288 1688.06 -2427.89 -5799.58 0.000844879 0.0035333 0.00228873 11.3952 8.39866 10.6117
178 1.53956 0.0100083 -1.28911 1686.8 -2427.38 -5799.2 0.00266495 -0.000878587 0.00708861 -8.35176 -26.4842 -18.2554
179 0.900126 -0.562554 -0.186053 1686.16 -2427.95 -5798.1 0.00736666 -0.00239404 -0.00201775 -17.7687 -9.30119 37.5186
180 1.52098 -1.48495 0.668059 1686.78 -2428.88 -5797.24 -0.000800546 0.00191425 0.00209314 47.8711 -19.7329 -43.0917
181 3.18141 -5.28965 1.40785 1688.44 -2432.68 -5796.5 -0.00880248 -0.00570611 0.0131146 9.38802 8.50109 6.70883
182 1.73056 -4.38959 1.28559 1686.99 -2431.78 -5796.62 0.00593672 0.0126656 0.000178103 1.44469 9.70415 2.93874
183 4.43073 -3.37748 0.461428 1689.69 -2430.77 -5797.45 -0.00145305 0.0195369 -0.00824842 10.3315 9.9388 12.7843
184 4.54999 -1.5522 -1.13609 1689.81 -2428.94 -5799.05 9.54936e-05 0.0104136 0.00727856 -1.11855 -13.9387 13.0155
185 3.24264 -0.249237 -2.63286 1688.5 -2427.64 -5800.54 -0.0169908 0.00966773 -0.00431999 -3.21055 7.54448 1.74667
186 0.927333 0.54331 -2.01034 1686.19 -2426.85 -5799.92 -0.000447214 -0.0150515 -0.000785201 4.99445 6.48759 0.999465
187 -0.149089 -0.426026 0.0587306 1685.11 -2427.82 -5797.85 0.00228353 -0.000657257 -0.025164 -1.95904 15.6075 -13.785
188 0.970227 -2.08325 1.38786 1686.23 -2429.47 -5796.52 0.0123628 -0.00571504 0.00585824 -1.91844 11.3862 1.82776
189 3.8259 -2.76265 2.5412 1689.08 -2430.15 -5795.37 0.000301241 0.00124432 -0.0086673 16.7314 4.7253 -12.7328
190 5.33616 -2.54485 2.88186 1690.6 -2429.94 -5795.03 -0.00408537 0.000165441 -0.00091854 -4.6433 5.72273 -18.0938
191 5.86002 -3.77427 3.50595 1691.12 -2431.17 -5794.4 0.00480697 0.0068912 -0.00432119 1.3901 -18.3443 45.6698
192 6.68496 -4.71491 2.84971 1691.94 -2432.11 -5795.06 -0.00875456 -0.0108208 0.00358507 12.3625 16.7166 -11.0935
193 7.22405 -5.80297 3.53783 1692.48 -2433.19 -5794.37 0.00123012 -0.00409452 0.00117657 5.24798 -9.38464 -32.9268
194 6.85656 -6.06251 4.81293 1692.12 -2433.45 -5793.1 -0.00297252 0.00401044 0.000153872 -1.52105 -12.5772 47.8366
195 6.00517 -5.23118 5.4965 1691.26 -2432.62 -5792.41 -0.00116445 0.00402634 0.00238829 -9.60683 24.5199 -12.0286
196 5.52253 -4.0481 4.8646 1690.78 -2431.44 -5793.04 -0.00465507 0.00113851 -0.00111315 4.5523 -41.4047 26.9983
197 3.38695 -1.78348 2.76918 1688.65 -2429.17 -5795.14 0.000140964 0.00404027 -0.0209867 -17.3725 -8.7041 -0.0150279
198 3.38835 -3.50153 3.22386 1688.65 -2430.89 -5794.69 0.00247824 -0.00407974 -0.0130423 -2.88902 1.92551 -2.35159
199 5.94522 -2.38341 1.98386 1691.2 -2429.77 -5795.93 -0.0115465 -0.0242264 -0.0102775 -8.66995 -8.81424 -6.80512
200 7.05852 -4.5311 1.84667 1692.32 -2431.92 -5796.06 0.0127248 0.0172972 0.0167049 -8.17691 1.52481 -0.912001
201 -7.59835 -6.51315 3.02099 1693.12 -2433.9 -5794.89 -0.0198323 -0.00862939 -0.0186595 3.69814 3.30095 -0.352999
202 7.25591 -6.87249 5.41614 1692.51 -2434.26 -5792.49 0.00886242 -0.0075932 -0.0234823 5.96047 -9.21456 -14.3746
203 5.73536 -5.49557 6.5147 1690.99 -2432.89 -5791.39 -0.0113236 0.00581845 0.000150293 -1.96393 6.58614 -0.40532
204 4.8463 -3.51959 5.53004 1690.11 -2430.91 -5792.38 -0.00205143 -0.0141464 0.0138929 -1.23578 21.8078 -21.3292
205 5.55103 -1.25843 3.73615 1690.81 -2428.65 -5794.17 -0.00831862 -0.00386966 -0.00349706 -2.30903 48.5683 2.83367
206 5.74345 0.0552442 2.86608 1691 -2427.34 -5795.04 0.00254217 -0.00148541 -0.00132896 -3.683 17.1504 13.0121
207 6.74431 1.1114 3.57451 1692 -2426.28 -5794.33 -0.00419039 0.0112561 -0.00482187 8.58744 -25.2932 -21.4826
208 6.28161 2.0893 4.50612 1691.54 -2425.3 -5793.4 -0.00634239 -0.00189121 -0.00217366 0.750557 -12.0781 -26.6914
209 7.11909 3.17197 4.86947 1692.38 -2424.22 -5793.04 -0.004553 -0.00109865 0.0114154 -18.5359 -36.6542 2.98646
210 -7.03705 3.1926 4.36696 1693.68 -2424.2 -5793.54 -0.00348497 0.00378365 -0.00477191 8.04301 30.3249 26.9457
211 -6.47198 2.1611 3.63712 1694.25 -2425.23 -5794.27 -0.00168347 0.00186035 0.00144802 -18.8386 -5.70747 -18.196
212 -7.31369 1.11563 3.20377 1693.41 -2426.28 -5794.71 -0.000252024 -0.00340538 -0.007157 -5.23317 12.5535 9.53964
213 4.66778 -0.954129 4.31121 1689.93 -2428.35 -5793.6 -0.00520726 -0.0169525 0.00802676 -0.581581 -20.9599 11.4425
214 6.37474 -1.33184 4.45694 1691.63 -2428.72 -5793.45 -0.0246431 0.000539154 0.0156333 0.214789 -7.04304 -3.55891
215 6.22407 -0.371652 1.97715 1691.48 -2427.76 -5795.93 -0.0039323 0.0115432 -0.010998 1.55524 22.4562 -7.10748
216 5.23366 2.02932 4.78471 1690.49 -2425.36 -5793.12 -0.00845471 0.0176593 -0.00604254 3.43861 8.78254 9.00999
217 6.75851 3.85037 5.63704 1692.02 -2423.54 -5792.27 -0.000207339 0.0104508 0.00316993 5.74977 10.0043 -8.60922
218 -6.42429 4.03711 4.66821 1694.3 -2423.35 -5793.24 -0.00809628 0.0110921 -0.0159077 6.0786 -0.378606 -2.13934
219 -5.46506 2.26134 3.24282 1695.25 -2425.13 -5794.67 0.00195094 -0.022488 0.00461247 -0.228173 -3.67423 4.8907
220 -6.82832 0.396521 2.55053 1693.89 -2426.99 -5795.36 0.000750047 -0.0125649 0.00368787 -17.2142 -6.54091 -2.50257
221 4.28623 0.731642 2.44865 1689.55 -2426.66 -5795.46 -0.00189974 -0.00429632 -0.00296069 37.3814 -36.7771 27.0002
222 4.29166 2.11748 1.76087 1689.55 -2425.27 -5796.15 0.00799144 0.00665556 0.00839108 -21.1356 -0.60516 4.28907
223 5.61623 2.40896 1.01417 1690.88 -2424.98 -5796.89 0.00105963 -0.00376381 -0.00254912 -10.354 -26.3851 -33.4238
224 6.03785 1.54294 -0.0763912 1691.3 -2425.85 -5797.99 -0.005311 -0.0027739 -0.000469386 -31.5406 0.598645 16.2564
225 7.22195 1.69965 -0.754166 1692.48 -2425.69 -5798.66 -0.00468992 -0.00250775 -0.00638373 25.3489 29.474 13.9369
226 -7.40217 2.7624 -0.352993 1693.32 -2424.63 -5798.26 0.00307572 -0.00107659 -0.00319864 -12.5229 -27.3787 -27.0336
227 7.62041 3.64303 0.628654 1692.88 -2423.75 -5797.28 6.70562e-05 -0.00103688 0.00527296 -2.56639 43.6391 31.3106
228 6.3801 3.53502 1.32207 1691.64 -2423.86 -5796.59 0.00328526 0.00384154 0.00455676 7.8255 -30.0399 -14.1411
229 3.66614 0.703468 3.35314 1688.93 -2426.69 -5794.56 -0.000699506 -0.015349 -0.00243821 -0.892986 17.0898 -0.246624
230 3.71494 0.0235947 1.83569 1688.97 -2427.37 -5796.07 -0.00704892 -0.0107065 0.00918448 8.73836 3.24695 -9.39163
231 4.11744 2.90779 2.50147 1689.38 -2424.48 -5795.41 -0.0208877 -0.00930743 0.0186459 6.95138 -6.84256 5.75619
232 5.40292 0.745841 -0.45178 1690.66 -2426.65 -5798.36 0.00204016 0.000625444 -0.0202092 -4.69938 -1.15274 10.3329
233 7.53148 1.03575 -1.55594 1692.79 -2426.36 -5799.46 0.0596064 -0.00320784 0.0188629 -7.54206 15.6102 0.931007
234 -6.4978 2.89954 -0.938407 1694.22 -2424.49 -5798.85 -0.00301643 -0.0117562 -0.0152039 4.46364 8.49268 10.0447
235 -7.23241 4.50499 0.886441 1693.49 -2422.89 -5797.02 0.0258507 -0.0243156 0.0221125 4.55212 -2.1213 -3.24314
236 6.02472 4.18296 2.11786 1691.28 -2423.21 -5795.79 0.0177413 0.0176126 -0.000298684 13.3964 7.56528 -5.023
237 2.98937 2.16462 0.874406 1688.25 -2425.23 -5797.03 -0.00526634 -0.00532797 -0.00210049 35.5914 14.6575 -6.04897
238 2.80676 3.61269 0.337285 1688.07 -2423.78 -5797.57 -0.00917188 -0.00127146 -0.00209888 -26.5702 45.1151 -12.9798
239 2.12737 3.55528 -1.04932 1687.39 -2423.84 -5798.96 -0.00106263 -0.00271476 -0.00241343 -37.3111 -18.3806 48.7716
240 2.77865 3.65394 -2.22409 1688.04 -2423.74 -5800.13 0.00302107 -0.00145399 0.00956156 30.3398 15.6798 -24.1114
241 2.06857 3.61257 -3.41189 1687.33 -2423.78 -5801.32 0.0045236 -0.00651734 -0.0013169 -17.5366 1.09564 -16.6858
242 0.681501 3.37027 -3.39413 1685.94 -2424.02 -5801.3 -0.00899739 -0.00573313 -0.00143122 -38.1841 -6.21608 19.0796
243 -0.0384595 3.1095 -2.17626 1685.22 -2424.28 -5800.09 0.00411238 -0.00243482 0.00299825 43.0438 25.0099 -39.7533
244 0.733516 3.31518 -1.04626 1685.99 -2424.08 -5798.96 -0.00126583 -0.000733065 0.00427604 -18.5308 -16.3966 25.0768
245 2.0774 1.74834 1.31987 1687.34 -2425.64 -5796.59 -0.00746804 -0.0150631 -0.0156407 5.16474 7.13985 7.91973
246 3.20639 1.49557 0.0325614 1688.47 -2425.9 -5797.88 0.00281094 0.00207418 -0.00589513 -2.42413 3.76925 -3.53152
247 3.7294 4.19557 0.225845 1688.99 -2423.2 -5797.68 0.000145917 -0.0183219 -0.0129504 12.1419 -21.7046 -3.92886
248 3.81695 3.97206 -2.23624 1689.08 -2423.42 -5800.15 0.00678344 -0.0141609 -0.000116834 3.87087 -4.93041 1.39072
249 2.53346 3.85641 -4.3626 1687.79 -2423.53 -5802.27 -0.00687734 0.00214784 -0.00468331 5.22427 -1.36603 2.05376
250 0.0682209 3.4539 -4.28649 1685.33 -2423.94 -5802.2 -0.00582921 -0.00691535 -0.00369683 9.47518 -0.67758 -7.05665
251 -1.11726 2.98895 -2.14349 1684.14 -2424.4 -5800.05 0.0016089 0.0185072 -0.00206888 5.11419 -0.819322 0.723259
252 0.191069 3.2829 -0.105988 1685.45 -2424.11 -5798.01 -0.0382236 -0.0143385 -0.0175018 3.39408 -4.74571 -0.348682
253 2.01718 4.62459 1.30479 1687.28 -2422.77 -5796.6 0.00309055 0.00428896 -0.00319909 -13.6817 -33.9818 -7.33961
254 1.48205 5.93097 0.542223 1686.74 -2421.46 -5797.37 0.00157101 0.00165228 -8.8929e-05 40.651 3.65561 -11.3626
255 2.68159 6.61046 -0.230074 1687.94 -2420.78 -5798.14 -0.00132016 -0.00515281 0.000437872 -3.63617 -6.67394 28.9975
256 3.92766 6.80754 0.461082 1689.19 -2420.58 -5797.45 0.00647742 0.00196906 0.00255412 2.3611 12.8521 -15.3107
257 5.05568 7.34691 -0.224537 1690.31 -2420.04 -5798.13 0.00686977 -0.00776433 -0.00696348 10.2468 -20.2739 -5.96851
258 5.01605 7.56806 -1.58476 1690.27 -2419.82 -5799.49 -0.000520648 0.0034981 -3.56612e-05 -57.5411 -5.26838 -25.828
259 3.75361 7.32446 -2.27788 1689.01 -2420.07 -5800.19 -0.00308489 -0.00322689 0.00207801 24.0133 2.71491 0.625564
260 2.56888 6.91647 -1.59867 1687.83 -2420.47 -5799.51 0.00587645 -0.000960124 -0.000950424 23.2494 -7.58896 12.751
261 1.14562 4.08819 1.69986 1686.4 -2423.3 -5796.21 0.0172007 0.00400159 0.0275454 -1.57984 1.97195 -2.00148
262 2.60503 4.75031 2.22243 1687.86 -2422.64 -5795.69 -0.0107598 -0.00523996 0.00703688 1.05083 18.825 -6.06755
263 0.74979 5.62289 -0.214285 1686.01 -2421.77 -5798.12 0.00918106 -0.0133667 -0.00134258 -0.806555 1.2209 3.66897
264 4.04058 6.52626 1.50394 1689.3 -2420.86 -5796.41 0.0050265 -0.0141436 -0.00164742 -1.94228 -0.217488 -2.04784
265 6.08269 7.29737 0.125054 1691.34 -2420.09 -5797.78 -0.000149136 -0.00402143 0.013794 -8.69445 5.80892 24.9926
266 5.90855 -7.56805 -2.11131 1691.17 -2419.5 -5800.02 -0.0050875 0.0366173 0.0125727 -4.12244 -9.12899 -0.476214
267 3.75469 7.35331 -3.36351 1689.01 -2420.04 -5801.27 0.0238758 0.0210261 0.00275602 -3.40296 6.09581 3.12853
268 1.64616 6.64094 -2.10074 1686.91 -2420.75 -5800.01 -0.00279087 0.00759857 0.0102663 5.5595 5.9055 -7.81024
269 0.794111 6.97379 1.43559 1686.05 -2420.42 -5796.47 -0.0021074 -0.00362415 -0.00380849 3.00336 6.70582 8.15624
270 -0.517638 7.55123 0.773597 1684.74 -2419.84 -5797.14 -0.00283378 -0.00188772 0.0032484 -13.4499 -2.48765 -28.2
271 -1.6431 6.49413 0.785121 1683.62 -2420.9 -5797.12 -0.000209294 -0.00410842 -0.000164373 -18.2377 -31.5811 -22.1198
272 -2.14151 6.12704 2.03811 1683.12 -2421.26 -5795.87 -0.00118525 0.00248852 -0.00251036 -2.5387 27.4663 -5.972
273 -3.30593 5.3601 2.1337 1681.95 -2422.03 -5795.78 0.00411919 0.00206802 -0.00414744 -2.80293 -30.0746 0.901376
274 -3.86588 4.75396 0.989409 1681.39 -2422.64 -5796.92 -0.00313647 0.00748604 -0.0013174 -11.5577 18.0461 -3.82862
275 -3.40767 5.11328 -0.281327 1681.85 -2422.28 -5798.19 0.00565815 0.00788521 -0.00484693 2.50435 -17.3662 -3.17495
276 -2.25092 5.86477 -0.395586 1683.01 -2421.53 -5798.3 -0.00247461 0.00476962 0.00243774 47.4242 44.6909 29.9169
277 1.56358 -7.72387 1.60445 1686.82 -2419.65 -5796.3 -0.00438585 -0.00322578 0.00464915 -10.4527 10.166 4.81915
278 0.586363 6.51924 2.41214 1685.85 -2420.87 -5795.5 -0.00838198 0.003871 -0.00167154 -4.00147 2.69119 0.522022
279 -0.244935 -7.68945 -0.265862 1685.01 -2419.62 -5798.17 0.00183123 -0.000766139 0.00471774 1.89267 -10.5172 -3.69082
280 -1.7249 6.68911 2.86873 1683.53 -2420.7 -5795.04 0.0272637 0.00339264 -0.0172956 -7.82006 -15.277 12.1631
281 -3.72777 5.07524 3.09304 1681.53 -2422.32 -5794.82 0.00814392 -0.00398983 -0.00417306 2.48594 7.95805 4.2383
282 -4.77472 4.16282 1.05256 1680.48 -2423.23 -5796.86 0.00489449 -0.00479642 -0.00111079 2.82511 -2.7874 5.71213
283 -3.88742 4.72602 -1.17536 1681.37 -2422.67 -5799.08 -0.0190032 0.00087101 0.0114425 0.121305 -1.15209 2.13504
284 -1.78215 6.05499 -1.35656 1683.48 -2421.34 -5799.27 0.015306 0.0111826 0.0123216 -8.998 0.280174 -3.34427
285 -1.10887 -6.52198 1.22694 1684.15 -2418.45 -5796.68 -0.00248447 -0.00123513 0.000836493 29.0661 -4.53679 8.12582
286 -1.73767 -5.69468 0.0974294 1683.52 -2417.62 -5797.81 0.00599654 -0.00781233 -0.0018726 -31.2402 -10.0391 6.25745
287 -3.11774 -6.36181 -0.234516 1682.14 -2418.29 -5798.14 0.000866165 -0.00619194 0.00386151 10.5137 1.44875 -10.5344
288 -4.08682 -6.67912 0.721319 1681.17 -2418.61 -5797.19 -1.74813e-05 -0.00145226 0.00363822 -36.7625 0.804761 -14.1376
289 -5.30563 -7.34934 0.311121 1679.95 -2419.28 -5797.6 -0.00419384 -0.00508709 0.0015038 18.2801 25.9706 46.1412
290 -5.60827 -7.61084 -1.00812 1679.65 -2419.54 -5798.92 -0.0102422 0.00389328 0.00156279 20.0621 1.32372 -26.5055
291 -4.60474 -7.34914 -1.96969 1680.65 -2419.28 -5799.88 -0.00745253 0.00314552 -0.00102848 -12.4708 -6.39273 17.9524
292 -3.35902 -6.80208 -1.54891 1681.9 -2418.73 -5799.46 -0.00125733 -0.00151957 -0.00842515 -5.04232 1.90529 -23.9003
293 -0.284613 -5.90493 1.60544 1684.97 -2417.84 -5796.3 -0.00233625 0.0127612 -0.022176 -0.154497 -5.18712 9.52142
294 -1.87063 -6.65614 2.00485 1683.39 -2418.59 -5795.9 0.0258244 0.0328121 0.0342818 14.4831 2.12552 3.35193
295 -1.19118 -5.75522 -0.851834 1684.07 -2417.69 -5798.76 -0.00214703 0.00584917 -0.00744787 14.1941 5.28989 10.5808
296 -4.02394 -6.24611 1.71528 1681.23 -2418.18 -5796.19 0.000590053 -0.00679722 0.00590778 2.58306 -9.22055 2.40593
297 -6.04737 -7.51103 1.08771 1679.21 -2419.44 -5796.82 -0.00358388 0.00751212 0.00472573 -4.71908 -3.28761 -3.78009
298 -6.56572 7.4468 -1.32423 1678.69 -2419.94 -5799.23 -0.00504998 -0.0131564 0.00766234 0.645156 -1.18977 5.30203
299 -4.83715 -7.62458 -2.99415 1680.42 -2419.55 -5800.9 0.0226642 -0.0167096 -0.00245643 12.4825 5.56316 -0.116214
300 -2.59398 -6.65374 -2.30531 1682.66 -2418.58 -5800.21 -0.00446195 0.0106108 -0.00927466 -0.254778 1.07557 -1.15337
301 -1.83664 -4.19821 0.580982 1683.42 -2416.13 -5797.33 0.00593112 -0.00732146 0.00196512 -17.0515 34.8912 -2.13043
302 -2.72254 -3.30973 -0.386904 1682.54 -2415.24 -5798.3 0.00413459 -0.00213617 -0.00100561 11.2056 5.38938 -3.05316
303 -2.25089 -3.37804 -1.89396 1683.01 -2415.31 -5799.8 0.00727998 0.000881382 0.00476928 -55.9904 -3.67997 24.4981
304 -0.920672 -3.19365 -2.21445 1684.34 -2415.12 -5800.12 0.00361279 -0.00603732 -0.000861389 11.1973 13.4086 -24.2662
305 -0.562922 -3.18903 -3.57811 1684.7 -2415.12 -5801.49 0.0086027 0.00476497 0.00227068 18.3186 -6.97034 -0.290734
306 -1.49381 -3.3409 -4.59443 1683.77 -2415.27 -5802.5 0.00427234 -0.00367219 -0.000632024 -24.1747 -18.6388 14.0602
307 -2.85357 -3.51626 -4.23708 1682.41 -2415.45 -5802.15 0.00236898 -0.000692355 -0.00141899 9.7036 20.6259 -34.0505
308 -3.26038 -3.5236 -2.91582 1682 -2415.45 -5800.82 -0.000252091 -0.000268789 0.00319086 33.8092 -5.08128 47.7146
309 -2.19194 -4.07677 1.61173 1683.07 -2416.01 -5796.3 -0.0138167 0.00142579 -0.00591413 -17.4553 -17.9269 -4.55129
310 -0.919862 -3.64495 0.819412 1684.34 -2415.58 -5797.09 0.0201517 -0.0311519 0.00189755 15.0994 -18.5766 -22.1467
311 -3.75397 -3.65296 -0.239323 1681.5 -2415.58 -5798.15 0.00279574 -0.0133727 -0.0373328 5.10528 -7.44537 -13.3181
312 -0.184843 -2.92269 -1.46309 1685.07 -2414.85 -5799.37 0.00524374 -0.00988631 -0.0010906 0.574424 -8.48603 1.71777
313 0.477826 -3.16231 -3.88721 1685.74 -2415.09 -5801.8 0.0117979 -0.0232894 0.0105261 2.04288 7.61589 9.17987
314 -1.18139 -3.49215 -5.62348 1684.08 -2415.42 -5803.53 0.00847897 0.0162669 -0.00222753 0.934548 10.4332 1.30873
315 -3.56372 -3.41541 -5.05251 1681.7 -2415.35 -5802.96 0.000449685 0.000607737 0.000425079 -8.90089 -14.7706 3.63928
316 -4.27547 -3.70698 -2.57615 1680.98 -2415.64 -5800.49 -0.00757514 -0.0188345 -0.0290097 -0.846071 7.07828 -13.2402
317 -2.75858 -1.81936 0.0913998 1682.5 -2413.75 -5797.82 0.000394834 0.00151969 -0.00298428 -1.7261 -6.81296 2.11683
318 -4.11386 -1.40446 0.683616 1681.15 -2413.33 -5797.23 0.00497325 0.00255485 0.00752587 -8.80057 51.121 8.37765
319 -5.30951 -1.36114 -0.284988 1679.95 -2413.29 -5798.19 -0.000867538 0.00620154 0.00318828 -4.18801 -2.00356 -6.28575
320 -6.54804 -1.83439 0.185404 1678.71 -2413.76 -5797.72 4.75258e-05 -0.00227756 -0.0029606 23.9419 17.4398 27.0985
321 -7.71474 -1.6913 -0.531261 1677.54 -2413.62 -5798.44 0.00491964 -0.00386553 -0.00678855 -0.901108 -14.5992 -15.9813
322 -7.6405 -1.23293 -1.85226 1677.62 -2413.16 -5799.76 -0.000571442 -0.00132774 0.000606321 16.7779 -0.189252 -16.1493
323 -6.37123 -0.772507 -2.40696 1678.89 -2412.7 -5800.32 0.00273718 -0.00286088 -0.00289317 -32.4506 -26.8301 18.7287
324 -5.26429 -0.794013 -1.57851 1679.99 -2412.72 -5799.49 -0.000235439 -0.00407938 -0.00706153 16.353 -2.36416 -14.0887
325 -2.03443 -1.68595 0.904564 1683.22 -2413.62 -5797 0.000454027 -0.00283061 -0.00233116 4.28505 0.396809 -3.98711
326 -2.50043 -1.08969 -0.686005 1682.76 -2413.02 -5798.6 -0.00157065 0.0235506 0.0169802 3.82057 -8.92676 -3.58427
327 -4.38259 -2.08263 1.50294 1680.88 -2414.01 -5796.41 0.0107969 -0.0167201 -0.00656498 8.22247 0.728571 -1.09282
328 -6.5729 -2.08799 1.24109 1678.69 -2414.02 -5796.67 -0.00563772 0.00996244 -0.000142399 -11.2836 -11.7208 -1.67474
329 6.83266 -2.13694 -0.149184 1676.63 -2414.07 -5798.06 0.00780161 -1.73525e-05 0.00454295 -3.29678 8.18344 0.948713
330 6.87667 -1.20793 -2.38874 1676.67 -2413.14 -5800.3 0.00476211 0.0104721 -0.00816027 8.44117 0.145715 -12.5921
331 -6.1754 -0.539771 -3.44951 1679.08 -2412.47 -5801.36 -0.0019094 -0.013323 -0.00609537 -18.6146 5.65092 0.707886
332 -4.36138 -0.461751 -2.08226 1680.9 -2412.39 -5799.99 -0.00812625 0.0231405 -0.00325098 9.87324 -1.63185 17.102
333 -3.91376 0.0732914 1.30985 1681.35 -2411.86 -5796.6 -0.00807088 -0.0015274 0.00514101 -4.63665 -31.9325 7.25976
334 -4.70885 0.798348 1.09641 1680.55 -2411.13 -5796.81 0.0172467 0.0158686 -0.0297096 4.62576 -6.73716 -7.44727
335 -2.92264 0.4796 1.07317 1682.34 -2411.45 -5796.84 -0.00420914 -0.00865154 0.00903426 -4.96052 5.82594 -3.06691
336 -3.92254 -0.0526884 2.39956 1681.34 -2411.98 -5795.51 -0.029709 -0.00737564 0.00428811 -0.964874 3.803 0.238663
